super cell
   2.460000000000000
   0.8660254037844386   -0.5000000000000000    0.0000000000000000
   0.8660254037844386    0.5000000000000000    0.0000000000000000
   0.000000000000000     0.000000000000000    10.000000000000000
   C
   2
Direct
   0.000000000000000   0.000000000000000   0.500000000000000
   0.333333333333333   0.333333333333333   0.500000000000000

