supercell
    1.0000000000000000
   12.3190522194999996    0.0000000000000000    0.0000000000000000
    6.1728088714999991   10.6762694280000012    0.0000000000000000
    0.0000000000000000    0.0000000000000000   15.4974455832999993
  C 
  49
Direct
    0.2000000000000028    0.0000000000000000    0.0000000000000000
    0.3999999999999986    0.0000000000000000    0.0000000000000000
    0.6000000000000014    0.0000000000000000    0.0000000000000000
    0.7999999999999972    0.0000000000000000    0.0000000000000000
    0.0000000000000000    0.2000000000000028    0.0000000000000000
    0.2000000000000028    0.2000000000000028    0.0000000000000000
    0.3999999999999986    0.2000000000000028    0.0000000000000000
    0.6000000000000014    0.2000000000000028    0.0000000000000000
    0.7999999999999972    0.2000000000000028    0.0000000000000000
    0.0000000000000000    0.3999999999999986    0.0000000000000000
    0.2000000000000028    0.3999999999999986    0.0000000000000000
    0.3999999999999986    0.3999999999999986    0.0000000000000000
    0.6000000000000014    0.3999999999999986    0.0000000000000000
    0.7999999999999972    0.3999999999999986    0.0000000000000000
    0.0000000000000000    0.6000000000000014    0.0000000000000000
    0.2000000000000028    0.6000000000000014    0.0000000000000000
    0.3999999999999986    0.6000000000000014    0.0000000000000000
    0.6000000000000014    0.6000000000000014    0.0000000000000000
    0.7999999999999972    0.6000000000000014    0.0000000000000000
    0.0000000000000000    0.7999999999999972    0.0000000000000000
    0.2000000000000028    0.7999999999999972    0.0000000000000000
    0.3999999999999986    0.7999999999999972    0.0000000000000000
    0.6000000000000014    0.7999999999999972    0.0000000000000000
    0.7999999999999972    0.7999999999999972    0.0000000000000000
    0.0666665999999978    0.0666659999999979    0.0000000000000000
    0.2666666000000006    0.0666659999999979    0.0000000000000000
    0.4666666000000035    0.0666659999999979    0.0000000000000000
    0.6666665999999992    0.0666659999999979    0.0000000000000000
    0.8666666000000021    0.0666659999999979    0.0000000000000000
    0.0666665999999978    0.2666660000000007    0.0000000000000000
    0.2666666000000006    0.2666660000000007    0.0000000000000000
    0.4666666000000035    0.2666660000000007    0.0000000000000000
    0.6666665999999992    0.2666660000000007    0.0000000000000000
    0.8666666000000021    0.2666660000000007    0.0000000000000000
    0.0666665999999978    0.4666659999999965    0.0000000000000000
    0.2666666000000006    0.4666659999999965    0.0000000000000000
    0.4666666000000035    0.4666659999999965    0.0000000000000000
    0.6666665999999992    0.4666659999999965    0.0000000000000000
    0.8666666000000021    0.4666659999999965    0.0000000000000000
    0.0666665999999978    0.6666659999999993    0.0000000000000000
    0.2666666000000006    0.6666659999999993    0.0000000000000000
    0.4666666000000035    0.6666659999999993    0.0000000000000000
    0.6666665999999992    0.6666659999999993    0.0000000000000000
    0.8666666000000021    0.6666659999999993    0.0000000000000000
    0.0666665999999978    0.8666660000000022    0.0000000000000000
    0.2666666000000006    0.8666660000000022    0.0000000000000000
    0.4666666000000035    0.8666660000000022    0.0000000000000000
    0.6666665999999992    0.8666660000000022    0.0000000000000000
    0.8666666000000021    0.8666660000000022    0.0000000000000000
