K-Path 
   50
Line-Mode
Reciprocal
   0.0000000000   0.0000000000   0.0000000000     GAMMA          
   2.0000000000   2.0000000000   0.0000000000     M              
 
   0.5000000000   0.5000000000   0.0000000000     M              
   1.3333333333   2.6666666667   0.0000000000     K              
 
   1.3333333333   2.6666666667   0.0000000000     K              
   0.0000000000   0.0000000000   0.0000000000     GAMMA          
 
