Ag                                      
   1.00000000000000     
     2.8425692603699209    0.0000000000000000    0.0000000000000000
     1.4212846301849604    2.4617371914970936    0.0000000000000000
     0.0000000000000000    0.0000000000000000   40.8885327392806630
   C  H N  O
   2  2 2   2
Direct
  0.0000000000000000  0.0000000000000000  0.2410534847462878 
  0.3333333333333357  0.3333333333333357  0.2988620779219053 
  0.6666666666666643  0.6666666666666643  0.3564109679748542 
  0.0000000000000000  0.0000000000000000  0.4139898134348695 
  0.3333333333333357  0.3333333333333357  0.4713282968372405 
  0.6666666666666643  0.6666666666666643  0.5286717031627606 
  0.0000000000000000  0.0000000000000000  0.5860101865651264 
  0.3333333333333357  0.3333333333333357  0.6435890320251476 
  0.6666666666666643  0.6666666666666643  0.7011379220780900 
  0.0000000000000000  0.0000000000000000  0.7589465152537106 
 
  0.00000000E+00  0.00000000E+00  0.00000000E+00
  0.00000000E+00  0.00000000E+00  0.00000000E+00
  0.00000000E+00  0.00000000E+00  0.00000000E+00
  0.00000000E+00  0.00000000E+00  0.00000000E+00
  0.00000000E+00  0.00000000E+00  0.00000000E+00
  0.00000000E+00  0.00000000E+00  0.00000000E+00
  0.00000000E+00  0.00000000E+00  0.00000000E+00
  0.00000000E+00  0.00000000E+00  0.00000000E+00
  0.00000000E+00  0.00000000E+00  0.00000000E+00
  0.00000000E+00  0.00000000E+00  0.00000000E+00
