#STRU Generated by pos2stru.
ATOMIC_SPECIES
C   1.00  ./
H   1.00  ./
N   1.00  ./
O   1.00  ./
 
NUMERICAL_ORBITAL
 
LATTICE_CONSTANT
       1.8897259885789233    # Angstrom to Bohr
 
LATTICE_VECTORS
       2.8425692603699209       0.0000000000000000       0.0000000000000000
       1.4212846301849604       2.4617371914970936       0.0000000000000000
       0.0000000000000000       0.0000000000000000      40.8885327392806630
 
ATOMIC_POSITIONS
Direct
 
C  #label
0 #magnetism
2 #number of atoms
       0.0000000000000000       0.0000000000000000       0.2410534847462878  m  1  1  1
       0.3333333333333357       0.3333333333333357       0.2988620779219053  m  1  1  1
H  #label
0 #magnetism
2 #number of atoms
       0.6666666666666643       0.6666666666666643       0.3564109679748542  m  1  1  1
       0.0000000000000000       0.0000000000000000       0.4139898134348695  m  1  1  1
N  #label
0 #magnetism
2 #number of atoms
       0.3333333333333357       0.3333333333333357       0.4713282968372405  m  1  1  1
       0.6666666666666643       0.6666666666666643       0.5286717031627606  m  1  1  1
O  #label
0 #magnetism
2 #number of atoms
       0.0000000000000000       0.0000000000000000       0.5860101865651264  m  1  1  1
       0.3333333333333357       0.3333333333333357       0.6435890320251476  m  1  1  1
