KPOINT_file_1
          50
Reciprocal
    0.00000000000000    2.50000000000000    0.00000000000000             1
    0.00000000000000    2.47500000000000    0.00000000000000             1
    0.00000000000000    2.45000000000000    0.00000000000000             1
    0.00000000000000    2.42500000000000    0.00000000000000             1
    0.00000000000000    2.40000000000000    0.00000000000000             1
    0.00000000000000    2.37500000000000    0.00000000000000             1
    0.00000000000000    2.35000000000000    0.00000000000000             1
    0.00000000000000    2.32500000000000    0.00000000000000             1
    0.00000000000000    2.30000000000000    0.00000000000000             1
    0.00000000000000    2.27500000000000    0.00000000000000             1
    0.00000000000000    2.25000000000000    0.00000000000000             1
    0.00000000000000    2.22500000000000    0.00000000000000             1
    0.00000000000000    2.20000000000000    0.00000000000000             1
    0.00000000000000    2.17500000000000    0.00000000000000             1
    0.00000000000000    2.15000000000000    0.00000000000000             1
    0.00000000000000    2.12500000000000    0.00000000000000             1
    0.00000000000000    2.10000000000000    0.00000000000000             1
    0.00000000000000    2.07500000000000    0.00000000000000             1
    0.00000000000000    2.05000000000000    0.00000000000000             1
    0.00000000000000    2.02500000000000    0.00000000000000             1
    0.00000000000000    2.00000000000000    0.00000000000000             1
    0.00000000000000    1.97500000000000    0.00000000000000             1
    0.00000000000000    1.95000000000000    0.00000000000000             1
    0.00000000000000    1.92500000000000    0.00000000000000             1
    0.00000000000000    1.90000000000000    0.00000000000000             1
    0.00000000000000    1.87500000000000    0.00000000000000             1
    0.00000000000000    1.85000000000000    0.00000000000000             1
    0.00000000000000    1.82500000000000    0.00000000000000             1
    0.00000000000000    1.80000000000000    0.00000000000000             1
    0.00000000000000    1.77500000000000    0.00000000000000             1
    0.00000000000000    1.75000000000000    0.00000000000000             1
    0.00000000000000    1.72500000000000    0.00000000000000             1
    0.00000000000000    1.70000000000000    0.00000000000000             1
    0.00000000000000    1.67500000000000    0.00000000000000             1
    0.00000000000000    1.65000000000000    0.00000000000000             1
    0.00000000000000    1.62500000000000    0.00000000000000             1
    0.00000000000000    1.60000000000000    0.00000000000000             1
    0.00000000000000    1.57500000000000    0.00000000000000             1
    0.00000000000000    1.55000000000000    0.00000000000000             1
    0.00000000000000    1.52500000000000    0.00000000000000             1
    0.00000000000000    1.50000000000000    0.00000000000000             1
    0.00000000000000    1.47500000000000    0.00000000000000             1
    0.00000000000000    1.45000000000000    0.00000000000000             1
    0.00000000000000    1.42500000000000    0.00000000000000             1
    0.00000000000000    1.40000000000000    0.00000000000000             1
    0.00000000000000    1.37500000000000    0.00000000000000             1
    0.00000000000000    1.35000000000000    0.00000000000000             1
    0.00000000000000    1.32500000000000    0.00000000000000             1
    0.00000000000000    1.30000000000000    0.00000000000000             1
    0.00000000000000    1.27500000000000    0.00000000000000             1
