 supercell
   1.000
    6.3806309700000003    0.0000000000000000    0.0000000000000000
    3.1903140133999992    5.5257893618000011    0.0000000000000000
    0.0000000000000013    0.0000000000000007   20.8790035248000052
   Mo   S    C 
    4    8   18
Direct
    0.1666665074999969    0.1666664930000010    0.4124750644999935    Mo1
    0.6666665074999969    0.1666664930000010    0.4124750644999935    Mo2
    0.1666665075000040    0.6666664930000010    0.4124750644999935    Mo3
    0.6666665075000040    0.6666664930000010    0.4124750644999935    Mo4
    0.3333335069999990    0.3333334924999960    0.3375249354999994     S1
    0.8333335069999990    0.3333334924999960    0.3375249354999994     S2
    0.3333335069999990    0.8333334925000031    0.3375249354999994     S3
    0.8333335069999990    0.8333334925000031    0.3375249354999994     S4
    0.3333335069999990    0.3333334925000031    0.4874251934999947     S5
    0.8333335069999990    0.3333334925000031    0.4874251934999947     S6
    0.3333335069999990    0.8333334924999960    0.4874251934999947     S7
    0.8333335069999990    0.8333334924999960    0.4874251934999947     S8
    0.0000000000000000    0.0000000000000000    0.6624750645000006     C1
    0.3333333333333357    0.0000000000000000    0.6624750645000006     C2
    0.6666666666666643    0.0000000000000000    0.6624750645000006     C3
    0.0000000000000000    0.3333333333333357    0.6624750645000006     C4
    0.3333333333333357    0.3333333333333357    0.6624750645000006     C5
    0.6666666666666643    0.3333333333333357    0.6624750645000006     C6
    0.0000000000000000    0.6666666666666643    0.6624750645000006     C7
    0.3333333333333357    0.6666666666666643    0.6624750645000006     C8
    0.6666666666666643    0.6666666666666643    0.6624750645000006     C9
    0.1111110049999979    0.1111109953333340    0.6624750645000006    C10
    0.4444443383333336    0.1111109953333340    0.6624750645000006    C11
    0.7777776716666693    0.1111109953333340    0.6624750645000006    C12
    0.1111110049999979    0.4444443286666697    0.6624750645000006    C13
    0.4444443383333336    0.4444443286666697    0.6624750645000006    C14
    0.7777776716666693    0.4444443286666697    0.6624750645000006    C15
    0.1111110049999979    0.7777776619999983    0.6624750645000006    C16
    0.4444443383333336    0.7777776619999983    0.6624750645000006    C17
    0.7777776716666693    0.7777776619999983    0.6624750645000006    C18
