generated by phonopy
   1.0
    12.3000001905000005    0.0000000000000000    0.0000000000000000
     6.1500008044999994   10.6521122225000013    0.0000000000000000
     0.0000000000000000    0.0000000000000000   20.0000000000000000
C O
  50    1
Direct
  0.0000000000000000  0.0000000000000000  0.4179974790000003
  0.2000000000000028  0.0000000000000000  0.4179974790000003
  0.3991869918825090  0.0000000000000000  0.4179974790000003
  0.6000000000000013  0.0000000000000000  0.4179974790000003
  0.7999999999999972  0.0000000000000000  0.4179974790000003
  0.0000000000000000  0.2000000000000028  0.4179974790000003
  0.2000000000000027  0.2000000000000028  0.4179974790000003
  0.3999999999999986  0.2000000000000028  0.4179974790000003
  0.6000000000000013  0.2000000000000028  0.4179974790000003
  0.7999999999999972  0.2000000000000028  0.4179974790000003
  0.0000000000000000  0.3999999999999986  0.4179974790000003
  0.2000000000000027  0.3999999999999986  0.4179974790000003
  0.3999999999999986  0.3999999999999986  0.4179974790000003
  0.6000000000000012  0.3999999999999986  0.4179974790000003
  0.7999999999999972  0.3999999999999986  0.4179974790000003
  0.9999999999999999  0.6000000000000014  0.4179974790000003
  0.2000000000000027  0.6000000000000014  0.4179974790000003
  0.3999999999999986  0.6000000000000014  0.4179974790000003
  0.6000000000000013  0.6000000000000014  0.4179974790000003
  0.7999999999999970  0.6000000000000014  0.4179974790000003
  0.0000000000000000  0.7999999999999972  0.4179974790000003
  0.2000000000000027  0.7999999999999972  0.4179974790000003
  0.3999999999999986  0.7999999999999972  0.4179974790000003
  0.6000000000000013  0.7999999999999972  0.4179974790000003
  0.7999999999999973  0.7999999999999972  0.4179974790000003
  0.0666666685999999  0.0666666030000016  0.4180060919999988
  0.2666666686000028  0.0666666030000016  0.4180060919999988
  0.4666666685999985  0.0666666030000016  0.4180060919999988
  0.6666666686000012  0.0666666030000016  0.4180060919999988
  0.8666666685999970  0.0666666030000016  0.4180060919999988
  0.0666666685999999  0.2666666029999973  0.4180060919999988
  0.2666666686000028  0.2666666029999973  0.4180060919999988
  0.4666666685999984  0.2666666029999973  0.4180060919999988
  0.6666666686000012  0.2666666029999973  0.4180060919999988
  0.8666666685999970  0.2666666029999973  0.4180060919999988
  0.0666666685999998  0.4666666030000002  0.4180060919999988
  0.2666666686000027  0.4666666030000002  0.4180060919999988
  0.4666666685999984  0.4666666030000002  0.4180060919999988
  0.6666666686000012  0.4666666030000002  0.4180060919999988
  0.8666666685999969  0.4666666030000002  0.4180060919999988
  0.0666666685999999  0.6666666030000030  0.4180060919999988
  0.2666666686000028  0.6666666030000030  0.4180060919999988
  0.4666666685999984  0.6666666030000030  0.4180060919999988
  0.6666666686000012  0.6666666030000030  0.4180060919999988
  0.8666666685999970  0.6666666030000030  0.4180060919999988
  0.0666666685999998  0.8666666029999989  0.4180060919999988
  0.2666666686000028  0.8666666029999989  0.4180060919999988
  0.4666666685999984  0.8666666029999989  0.4180060919999988
  0.6666666686000013  0.8666666029999989  0.4180060919999988
  0.8666666685999969  0.8666666029999989  0.4180060919999988
  0.3999999999999986  0.3999999999999986  0.4680060919999989
