INPUT_PARAMETERS
#Parameters     (General)
pseudo_dir              ./
ntype                   1
#Parameters (Accuracy)
ecutwfc                 60
niter                   300  # NELM
dr2                     1.0e-5 #EDIFF
basis_type              lcao_in_pw

smearing                gauss
sigma                   0.01


#out_lowf                1
out_wf                  1
calculation             scf 
#out_charge              1
#gamma_only              1                                 
