supercell
1.0
        2.4638106823         0.0000000000         0.0000000000
        1.2345617743         2.1352538856         0.0000000000
        0.0000000000         0.0000000000        15.4974451065
    C
    2
Direct
     0.000000000         0.000000000         0.500000000
     0.333333333         0.333333333         0.500000000
