#This is the atom file containing all the information
#about the lattice structure.

ATOMIC_SPECIES
C 1.000 ./C_ONCV_PBE-1.2.upf
 
NUMERICAL_ORBITAL
C_gga_6au_60Ry_2s2p1d.orb

LATTICE_CONSTANT
 1.889725989           #Lattice constant bohr

LATTICE_VECTORS
3.6930595903000003   -2.1352538856000001    0.0000000000000000
1.2345617742999999    2.1352538856000001    0.0000000000000000
0.0000000000000000    0.0000000000000000   15.4974451065000007


ATOMIC_POSITIONS
Direct               #Cartesian(Unit is LATTICE_CONSTANT)

C                      #Name of element        
0.0                     #Magnetic for this element.
4                       #Number of atoms
    0.0000000000000000    0.0000000000000000    0.5000000000000000
    0.5000000000000000    0.5000000000000000    0.5000000000000000
    0.1666666664999994    0.4999999994999982    0.5000000000000000
    0.6666666664999994    0.9999999994999982    0.5000000000000000
