super cell
   2.460000000000000
   0.866025403784439  -0.500000000000000   0.000000000000000
   0.866025403784439   0.500000000000000   0.000000000000000
   0.000000000000000   0.000000000000000  10.000000000000000
   C
   2
Direct
   0.000000000000000   0.000000000000000   0.500000000000000
   0.333333333333333   0.333333333333333   0.500000000000000

