KPOINT_file_2
          51
Reciprocal
    0.50000000000000    0.00000000000000    0.00000000000000             1
    0.49000000000000    0.00000000000000    0.00000000000000             1
    0.48000000000000    0.00000000000000    0.00000000000000             1
    0.47000000000000    0.00000000000000    0.00000000000000             1
    0.46000000000000    0.00000000000000    0.00000000000000             1
    0.45000000000000    0.00000000000000    0.00000000000000             1
    0.44000000000000    0.00000000000000    0.00000000000000             1
    0.43000000000000    0.00000000000000    0.00000000000000             1
    0.42000000000000    0.00000000000000    0.00000000000000             1
    0.41000000000000    0.00000000000000    0.00000000000000             1
    0.40000000000000    0.00000000000000    0.00000000000000             1
    0.39000000000000    0.00000000000000    0.00000000000000             1
    0.38000000000000    0.00000000000000    0.00000000000000             1
    0.37000000000000    0.00000000000000    0.00000000000000             1
    0.36000000000000    0.00000000000000    0.00000000000000             1
    0.35000000000000    0.00000000000000    0.00000000000000             1
    0.34000000000000    0.00000000000000    0.00000000000000             1
    0.33000000000000    0.00000000000000    0.00000000000000             1
    0.32000000000000    0.00000000000000    0.00000000000000             1
    0.31000000000000    0.00000000000000    0.00000000000000             1
    0.30000000000000    0.00000000000000    0.00000000000000             1
    0.29000000000000    0.00000000000000    0.00000000000000             1
    0.28000000000000    0.00000000000000    0.00000000000000             1
    0.27000000000000    0.00000000000000    0.00000000000000             1
    0.26000000000000    0.00000000000000    0.00000000000000             1
    0.25000000000000    0.00000000000000    0.00000000000000             1
    0.24000000000000    0.00000000000000    0.00000000000000             1
    0.23000000000000    0.00000000000000    0.00000000000000             1
    0.22000000000000    0.00000000000000    0.00000000000000             1
    0.21000000000000    0.00000000000000    0.00000000000000             1
    0.20000000000000    0.00000000000000    0.00000000000000             1
    0.19000000000000    0.00000000000000    0.00000000000000             1
    0.18000000000000    0.00000000000000    0.00000000000000             1
    0.17000000000000    0.00000000000000    0.00000000000000             1
    0.16000000000000    0.00000000000000    0.00000000000000             1
    0.15000000000000    0.00000000000000    0.00000000000000             1
    0.14000000000000    0.00000000000000    0.00000000000000             1
    0.13000000000000    0.00000000000000    0.00000000000000             1
    0.12000000000000    0.00000000000000    0.00000000000000             1
    0.11000000000000    0.00000000000000    0.00000000000000             1
    0.10000000000000    0.00000000000000    0.00000000000000             1
    0.09000000000000    0.00000000000000    0.00000000000000             1
    0.08000000000000    0.00000000000000    0.00000000000000             1
    0.07000000000000    0.00000000000000    0.00000000000000             1
    0.06000000000000    0.00000000000000    0.00000000000000             1
    0.05000000000000    0.00000000000000    0.00000000000000             1
    0.04000000000000    0.00000000000000    0.00000000000000             1
    0.03000000000000    0.00000000000000    0.00000000000000             1
    0.02000000000000    0.00000000000000    0.00000000000000             1
    0.01000000000000    0.00000000000000    0.00000000000000             1
    0.00000000000000    0.00000000000000    0.00000000000000             1
