KPOINT_file_1
          50
Reciprocal
    1.00000000000000    0.00000000000000    0.00000000000000             1
    0.99000000000000    0.00000000000000    0.00000000000000             1
    0.98000000000000    0.00000000000000    0.00000000000000             1
    0.97000000000000    0.00000000000000    0.00000000000000             1
    0.96000000000000    0.00000000000000    0.00000000000000             1
    0.95000000000000    0.00000000000000    0.00000000000000             1
    0.94000000000000    0.00000000000000    0.00000000000000             1
    0.93000000000000    0.00000000000000    0.00000000000000             1
    0.92000000000000    0.00000000000000    0.00000000000000             1
    0.91000000000000    0.00000000000000    0.00000000000000             1
    0.90000000000000    0.00000000000000    0.00000000000000             1
    0.89000000000000    0.00000000000000    0.00000000000000             1
    0.88000000000000    0.00000000000000    0.00000000000000             1
    0.87000000000000    0.00000000000000    0.00000000000000             1
    0.86000000000000    0.00000000000000    0.00000000000000             1
    0.85000000000000    0.00000000000000    0.00000000000000             1
    0.84000000000000    0.00000000000000    0.00000000000000             1
    0.83000000000000    0.00000000000000    0.00000000000000             1
    0.82000000000000    0.00000000000000    0.00000000000000             1
    0.81000000000000    0.00000000000000    0.00000000000000             1
    0.80000000000000    0.00000000000000    0.00000000000000             1
    0.79000000000000    0.00000000000000    0.00000000000000             1
    0.78000000000000    0.00000000000000    0.00000000000000             1
    0.77000000000000    0.00000000000000    0.00000000000000             1
    0.76000000000000    0.00000000000000    0.00000000000000             1
    0.75000000000000    0.00000000000000    0.00000000000000             1
    0.74000000000000    0.00000000000000    0.00000000000000             1
    0.73000000000000    0.00000000000000    0.00000000000000             1
    0.72000000000000    0.00000000000000    0.00000000000000             1
    0.71000000000000    0.00000000000000    0.00000000000000             1
    0.70000000000000    0.00000000000000    0.00000000000000             1
    0.69000000000000    0.00000000000000    0.00000000000000             1
    0.68000000000000    0.00000000000000    0.00000000000000             1
    0.67000000000000    0.00000000000000    0.00000000000000             1
    0.66000000000000    0.00000000000000    0.00000000000000             1
    0.65000000000000    0.00000000000000    0.00000000000000             1
    0.64000000000000    0.00000000000000    0.00000000000000             1
    0.63000000000000    0.00000000000000    0.00000000000000             1
    0.62000000000000    0.00000000000000    0.00000000000000             1
    0.61000000000000    0.00000000000000    0.00000000000000             1
    0.60000000000000    0.00000000000000    0.00000000000000             1
    0.59000000000000    0.00000000000000    0.00000000000000             1
    0.58000000000000    0.00000000000000    0.00000000000000             1
    0.57000000000000    0.00000000000000    0.00000000000000             1
    0.56000000000000    0.00000000000000    0.00000000000000             1
    0.55000000000000    0.00000000000000    0.00000000000000             1
    0.54000000000000    0.00000000000000    0.00000000000000             1
    0.53000000000000    0.00000000000000    0.00000000000000             1
    0.52000000000000    0.00000000000000    0.00000000000000             1
    0.51000000000000    0.00000000000000    0.00000000000000             1
