Ge_2+Al2O3_rt3                          
   1.00000000000000     
     7.0980358460254411   -4.0980529064204037    0.0000000000000000
     0.0000000000000000    8.1961058128408073    0.0000000000000000
     0.0000000000000000    0.0000000000000000   39.4181017950076082
   Al   O    Ge
    36    54    16
Selective dynamics
Direct
  0.0040905972256495  0.3341687203527167  0.3527031234821639   T   T   T
  0.6658312796473087  0.6699218768729077  0.3527031234821630   T   T   T
  0.3300781231270564 -0.0040905972256494  0.3527031234821639   T   T   T
  0.0000000000000000  0.0000000000000000  0.3855378331294190   F   F   F
  0.6666666666666643  0.3333333333333357  0.3855378331294190   F   F   F
  0.3333333333333357  0.6666666666666643  0.3855378331294190   F   F   F
  0.3333333333333286  0.3333333333333357  0.3922824063691195   F   F   F
  0.0000000000000000  0.6666666666666643  0.3922824063691195   F   F   F
  0.6666666666666643  0.0000000000000000  0.3922824063691195   F   F   F
  0.0000000000000000  0.3333333333333357  0.4399516527114855   F   F   F
  0.6666666666666714  0.6666666666666643  0.4399516527114855   F   F   F
  0.3333333333333357  0.0000000000000000  0.4399516527114855   F   F   F
  0.0000000000000000  0.0000000000000000  0.4512112765036633   F   F   F
  0.6666666666666643  0.3333333333333357  0.4512112765036633   F   F   F
  0.3333333333333357  0.6666666666666643  0.4512112765036633   F   F   F
  0.3333333333333286  0.3333333333333357  0.4935202217062908   F   F   F
  0.0000000000000000  0.6666666666666643  0.4935202217062908   F   F   F
  0.6666666666666643  0.0000000000000000  0.4935202217062908   F   F   F
  0.0000000000000000  0.3333333333333357  0.5064797782937092   F   F   F
  0.6666666666666714  0.6666666666666643  0.5064797782937092   F   F   F
  0.3333333333333357  0.0000000000000000  0.5064797782937092   F   F   F
  0.0000000000000000  0.0000000000000000  0.5487887234963367   F   F   F
  0.6666666666666643  0.3333333333333357  0.5487887234963367   F   F   F
  0.3333333333333357  0.6666666666666643  0.5487887234963367   F   F   F
  0.3333333333333286  0.3333333333333357  0.5600483472885145   F   F   F
  0.0000000000000000  0.6666666666666643  0.5600483472885145   F   F   F
  0.6666666666666643  0.0000000000000000  0.5600483472885145   F   F   F
  0.0000000000000000  0.3333333333333357  0.6077175936308805   F   F   F
  0.6666666666666714  0.6666666666666643  0.6077175936308805   F   F   F
  0.3333333333333357  0.0000000000000000  0.6077175936308805   F   F   F
  0.0000000000000000  0.0000000000000000  0.6144621668705810   F   F   F
  0.6666666666666643  0.3333333333333357  0.6144621668705810   F   F   F
  0.3333333333333357  0.6666666666666643  0.6144621668705810   F   F   F
  0.3341687203527099  0.3300781231270564  0.6472968765178947   T   T   T
 -0.0040905972256495  0.6658312796473008  0.6472968765178947   T   T   T
  0.6699218768729077  0.0040905972256495  0.6472968765178947   T   T   T
  0.2199941398683785  0.1216312525158981  0.3617531427358311   T   T   T
  0.8875386228906219  0.4541295733846094  0.3621044109838288   T   T   T
  0.5533496668298004  0.7913789862233179  0.3624732652394409   T   T   T
  0.2380293193935823  0.4466503331702240  0.3624732652394409   T   T   T
  0.9016371126475060  0.7800058601315819  0.3617531427358311   T   T   T
  0.5665909504938678  0.1124613771093111  0.3621044109838288   T   T   T
  0.5458704266154499  0.4334090495060978  0.3621044109838288   T   T   T
  0.2086210137766401  0.7619706806064483  0.3624732652394410   T   T   T
  0.8783687474840729  0.0983628873524648  0.3617531427358311   T   T   T
  0.7704882239325030  0.2297957508676163  0.4176757531512152   F   F   F
  0.4371548905991673  0.5631290842009520  0.4176757531512152   F   F   F
  0.1038215572658387  0.8964624175342877  0.4176757531512152   F   F   F
  0.1035375824657123  0.2073591397315511  0.4176757531512152   F   F   F
  0.7702042491323837  0.5406924730648868  0.4176757531512152   F   F   F
  0.4368709157990480  0.8740258063982154  0.4176757531512152   F   F   F
  0.4593075269351132  0.2295117760674970  0.4176757531512152   F   F   F
  0.1259741936017846  0.5628451094008327  0.4176757531512152   F   F   F
  0.7926408602684489  0.8961784427341613  0.4176757531512152   F   F   F
  0.8987409862212488  0.1293329111565953  0.4727273268972283   F   F   F
  0.5654076528879131  0.4626662444899310  0.4727273268972283   F   F   F
  0.2320743195545774  0.7959995778232667  0.4727273268972283   F   F   F
  0.8972585916020179  0.4345923471120869  0.4727273268972283   F   F   F
  0.5639252582686822  0.7679256804454226  0.4727273268972283   F   F   F
  0.2305919249353465  0.1012590137787512  0.4727273268972283   F   F   F
  0.2040004221767404  0.4360747417313178  0.4727273268972283   F   F   F
  0.8706670888434047  0.7694080750646535  0.4727273268972283   F   F   F
  0.5373337555100690  0.1027414083979821  0.4727273268972283   F   F   F
  0.1293329111565953  0.2305919249353536  0.5272726731027717   F   F   F
  0.7959995778232667  0.5639252582686822  0.5272726731027717   F   F   F
  0.4626662444899310  0.8972585916020179  0.5272726731027717   F   F   F
  0.4360747417313178  0.2320743195545774  0.5272726731027717   F   F   F
  0.1027414083979821  0.5654076528879131  0.5272726731027717   F   F   F
  0.7694080750646464  0.8987409862212488  0.5272726731027717   F   F   F
  0.4345923471120869  0.5373337555100690  0.5272726731027717   F   F   F
  0.1012590137787512  0.8706670888434047  0.5272726731027717   F   F   F
  0.7679256804454226  0.2040004221767404  0.5272726731027717   F   F   F
  0.8961784427341613  0.1035375824657123  0.5823242468487848   F   F   F
  0.5628451094008327  0.4368709157990480  0.5823242468487848   F   F   F
  0.2295117760674970  0.7702042491323837  0.5823242468487848   F   F   F
  0.2073591397315511  0.1038215572658387  0.5823242468487848   F   F   F
  0.8740258063982154  0.4371548905991673  0.5823242468487848   F   F   F
  0.5406924730648868  0.7704882239325030  0.5823242468487848   F   F   F
  0.2297957508676163  0.4593075269351132  0.5823242468487848   F   F   F
  0.8964624175342877  0.7926408602684489  0.5823242468487848   F   F   F
  0.5631290842009520  0.1259741936017846  0.5823242468487848   F   F   F
  0.7913789862233180  0.2380293193935814  0.6375267347605812   T   T   T
  0.4541295733846022  0.5665909504938530  0.6378955890162190   T   T   T
  0.1216312525158960  0.9016371126475095  0.6382468572641697   T   T   T
  0.0983628873524664  0.2199941398683755  0.6382468572641697   T   T   T
  0.7619706806064512  0.5533496668298007  0.6375267347605812   T   T   T
  0.4334090495060983  0.8875386228906220  0.6378955890162190   T   T   T
  0.1124613771093149  0.5458704266154516  0.6378955890162190   T   T   T
  0.7800058601315819  0.8783687474840729  0.6382468572641697   T   T   T
  0.4466503331702267  0.2086210137766404  0.6375267347605812   T   T   T
  0.0000000000000000  0.0000000000000000  0.7070142389284017   T   T   T
  0.4770848747878628 -0.0143359158661493  0.7091083880188143   T   T   T
  0.0143359158661495  0.4914207906539796  0.7091083880188143   T   T   T
  0.5085792093459877  0.5229151252121429  0.7091083880188139   T   T   T
  0.3353406253887171  0.1828904331676092  0.7251506497856529   T   T   T
  0.8171095668323879  0.1524501922211250  0.7251506497856529   T   T   T
  0.3333333333333357  0.6666666666666714  0.7351582610797897   T   T   T
  0.8475498077789506  0.6646593746113434  0.7251506497856529   T   T   T
  0.0000000000000000  0.0000000000000000  0.2929857610716305   T   T   T
  0.5229151252121429  0.0143359158661494  0.2908916119811352   T   T   T
 -0.0143359158661493  0.5085792093459892  0.2908916119811376   T   T   T
  0.4914207906539786  0.4770848747878628  0.2908916119811352   T   T   T
  0.6646593746113364  0.8171095668323808  0.2748493502143520   T   T   T
  0.1828904331676017  0.8475498077789505  0.2748493502143514   T   T   T
  0.6666666666666643  0.3333333333333286  0.2648417389202359   T   T   T
  0.1524501922211337  0.3353406253887163  0.2748493502143512   T   T   T
 
  0.00000000E+00  0.00000000E+00  0.00000000E+00
  0.00000000E+00  0.00000000E+00  0.00000000E+00
  0.00000000E+00  0.00000000E+00  0.00000000E+00
  0.00000000E+00  0.00000000E+00  0.00000000E+00
  0.00000000E+00  0.00000000E+00  0.00000000E+00
  0.00000000E+00  0.00000000E+00  0.00000000E+00
  0.00000000E+00  0.00000000E+00  0.00000000E+00
  0.00000000E+00  0.00000000E+00  0.00000000E+00
  0.00000000E+00  0.00000000E+00  0.00000000E+00
  0.00000000E+00  0.00000000E+00  0.00000000E+00
  0.00000000E+00  0.00000000E+00  0.00000000E+00
  0.00000000E+00  0.00000000E+00  0.00000000E+00
  0.00000000E+00  0.00000000E+00  0.00000000E+00
  0.00000000E+00  0.00000000E+00  0.00000000E+00
  0.00000000E+00  0.00000000E+00  0.00000000E+00
  0.00000000E+00  0.00000000E+00  0.00000000E+00
  0.00000000E+00  0.00000000E+00  0.00000000E+00
  0.00000000E+00  0.00000000E+00  0.00000000E+00
  0.00000000E+00  0.00000000E+00  0.00000000E+00
  0.00000000E+00  0.00000000E+00  0.00000000E+00
  0.00000000E+00  0.00000000E+00  0.00000000E+00
  0.00000000E+00  0.00000000E+00  0.00000000E+00
  0.00000000E+00  0.00000000E+00  0.00000000E+00
  0.00000000E+00  0.00000000E+00  0.00000000E+00
  0.00000000E+00  0.00000000E+00  0.00000000E+00
  0.00000000E+00  0.00000000E+00  0.00000000E+00
  0.00000000E+00  0.00000000E+00  0.00000000E+00
  0.00000000E+00  0.00000000E+00  0.00000000E+00
  0.00000000E+00  0.00000000E+00  0.00000000E+00
  0.00000000E+00  0.00000000E+00  0.00000000E+00
  0.00000000E+00  0.00000000E+00  0.00000000E+00
  0.00000000E+00  0.00000000E+00  0.00000000E+00
  0.00000000E+00  0.00000000E+00  0.00000000E+00
  0.00000000E+00  0.00000000E+00  0.00000000E+00
  0.00000000E+00  0.00000000E+00  0.00000000E+00
  0.00000000E+00  0.00000000E+00  0.00000000E+00
  0.00000000E+00  0.00000000E+00  0.00000000E+00
  0.00000000E+00  0.00000000E+00  0.00000000E+00
  0.00000000E+00  0.00000000E+00  0.00000000E+00
  0.00000000E+00  0.00000000E+00  0.00000000E+00
  0.00000000E+00  0.00000000E+00  0.00000000E+00
  0.00000000E+00  0.00000000E+00  0.00000000E+00
  0.00000000E+00  0.00000000E+00  0.00000000E+00
  0.00000000E+00  0.00000000E+00  0.00000000E+00
  0.00000000E+00  0.00000000E+00  0.00000000E+00
  0.00000000E+00  0.00000000E+00  0.00000000E+00
  0.00000000E+00  0.00000000E+00  0.00000000E+00
  0.00000000E+00  0.00000000E+00  0.00000000E+00
  0.00000000E+00  0.00000000E+00  0.00000000E+00
  0.00000000E+00  0.00000000E+00  0.00000000E+00
  0.00000000E+00  0.00000000E+00  0.00000000E+00
  0.00000000E+00  0.00000000E+00  0.00000000E+00
  0.00000000E+00  0.00000000E+00  0.00000000E+00
  0.00000000E+00  0.00000000E+00  0.00000000E+00
  0.00000000E+00  0.00000000E+00  0.00000000E+00
  0.00000000E+00  0.00000000E+00  0.00000000E+00
  0.00000000E+00  0.00000000E+00  0.00000000E+00
  0.00000000E+00  0.00000000E+00  0.00000000E+00
  0.00000000E+00  0.00000000E+00  0.00000000E+00
  0.00000000E+00  0.00000000E+00  0.00000000E+00
  0.00000000E+00  0.00000000E+00  0.00000000E+00
  0.00000000E+00  0.00000000E+00  0.00000000E+00
  0.00000000E+00  0.00000000E+00  0.00000000E+00
  0.00000000E+00  0.00000000E+00  0.00000000E+00
  0.00000000E+00  0.00000000E+00  0.00000000E+00
  0.00000000E+00  0.00000000E+00  0.00000000E+00
  0.00000000E+00  0.00000000E+00  0.00000000E+00
  0.00000000E+00  0.00000000E+00  0.00000000E+00
  0.00000000E+00  0.00000000E+00  0.00000000E+00
  0.00000000E+00  0.00000000E+00  0.00000000E+00
  0.00000000E+00  0.00000000E+00  0.00000000E+00
  0.00000000E+00  0.00000000E+00  0.00000000E+00
  0.00000000E+00  0.00000000E+00  0.00000000E+00
  0.00000000E+00  0.00000000E+00  0.00000000E+00
  0.00000000E+00  0.00000000E+00  0.00000000E+00
  0.00000000E+00  0.00000000E+00  0.00000000E+00
  0.00000000E+00  0.00000000E+00  0.00000000E+00
  0.00000000E+00  0.00000000E+00  0.00000000E+00
  0.00000000E+00  0.00000000E+00  0.00000000E+00
  0.00000000E+00  0.00000000E+00  0.00000000E+00
  0.00000000E+00  0.00000000E+00  0.00000000E+00
  0.00000000E+00  0.00000000E+00  0.00000000E+00
  0.00000000E+00  0.00000000E+00  0.00000000E+00
  0.00000000E+00  0.00000000E+00  0.00000000E+00
  0.00000000E+00  0.00000000E+00  0.00000000E+00
  0.00000000E+00  0.00000000E+00  0.00000000E+00
  0.00000000E+00  0.00000000E+00  0.00000000E+00
  0.00000000E+00  0.00000000E+00  0.00000000E+00
  0.00000000E+00  0.00000000E+00  0.00000000E+00
  0.00000000E+00  0.00000000E+00  0.00000000E+00
  0.00000000E+00  0.00000000E+00  0.00000000E+00
  0.00000000E+00  0.00000000E+00  0.00000000E+00
  0.00000000E+00  0.00000000E+00  0.00000000E+00
  0.00000000E+00  0.00000000E+00  0.00000000E+00
  0.00000000E+00  0.00000000E+00  0.00000000E+00
  0.00000000E+00  0.00000000E+00  0.00000000E+00
  0.00000000E+00  0.00000000E+00  0.00000000E+00
  0.00000000E+00  0.00000000E+00  0.00000000E+00
  0.00000000E+00  0.00000000E+00  0.00000000E+00
  0.00000000E+00  0.00000000E+00  0.00000000E+00
  0.00000000E+00  0.00000000E+00  0.00000000E+00
  0.00000000E+00  0.00000000E+00  0.00000000E+00
  0.00000000E+00  0.00000000E+00  0.00000000E+00
  0.00000000E+00  0.00000000E+00  0.00000000E+00
  0.00000000E+00  0.00000000E+00  0.00000000E+00
  0.00000000E+00  0.00000000E+00  0.00000000E+00
