Ag 
 1.0000000000000000
     2.8425692603699209    0.0000000000000000    0.0000000000000000
     1.4212846301849604    2.4617371914970936    0.0000000000000000
     0.0000000000000000    0.0000000000000000   40.8885327392806630
  10
Cartesian
  0.0000000000000000  0.0000000000000000 10.0000000000000018
  1.4212846301849604  0.8205790638323645 12.3209480821422979
  0.0000000000000000  1.6411581276647289 14.6418961642845922
  0.0000000000000000  0.0000000000000000 16.9628442464268900
  1.4212846301849604  0.8205790638323645 19.2837923285691843
  0.0000000000000000  1.6411581276647289 21.6047404107114787
  0.0000000000000000  0.0000000000000000 23.9256884928537730
  1.4212846301849604  0.8205790638323645 26.2466365749960744
  0.0000000000000000  1.6411581276647289 28.5675846571383687
  0.0000000000000000  0.0000000000000000 30.8885327392806630
