#STRU Generated by pos2stru.
ATOMIC_SPECIES
C   1.00  ./
H   1.00  ./
N   1.00  ./
O   1.00  ./
 
NUMERICAL_ORBITAL
 
LATTICE_CONSTANT
       1.8897259885789233    # Angstrom to Bohr
 
LATTICE_VECTORS
       5.6851385207398417       0.0000000000000000       0.0000000000000000
       2.8425692603699209       4.9234743829941872       0.0000000000000000
       0.0000000000000000       0.0000000000000000      40.8885327392806630
 
ATOMIC_POSITIONS
Direct
 
C  #label
0 #magnetism
8 #number of atoms
       0.0000000000000000       0.0000000000000000       0.2410534847462884  m  1  1  1
       0.5000000000000000       0.0000000000000000       0.2410534847462884  m  1  1  1
       0.0000000000000000       0.5000000000000000       0.2410534847462884  m  1  1  1
       0.5000000000000000       0.5000000000000000       0.2410534847462884  m  1  1  1
       0.1666666666666643       0.1666666666666643       0.2988620779219033  m  1  1  1
       0.6666666666666714       0.1666666666666643       0.2988620779219033  m  1  1  1
       0.1666666666666714       0.6666666666666714       0.2988620779219033  m  1  1  1
       0.6666666666666643       0.6666666666666714       0.2988620779219033  m  1  1  1
H  #label
0 #magnetism
8 #number of atoms
       0.3333333333333286       0.3333333333333286       0.3564109679748526  m  1  1  1
       0.8333333333333286       0.3333333333333286       0.3564109679748526  m  1  1  1
       0.3333333333333286       0.8333333333333286       0.3564109679748526  m  1  1  1
       0.8333333333333286       0.8333333333333286       0.3564109679748526  m  1  1  1
       0.0000000000000000       0.0000000000000000       0.4139898134348670  m  1  1  1
       0.5000000000000000       0.0000000000000000       0.4139898134348670  m  1  1  1
       0.0000000000000000       0.5000000000000000       0.4139898134348670  m  1  1  1
       0.5000000000000000       0.5000000000000000       0.4139898134348670  m  1  1  1
N  #label
0 #magnetism
8 #number of atoms
       0.1666666666666643       0.1666666666666643       0.4713282968372425  m  1  1  1
       0.6666666666666714       0.1666666666666643       0.4713282968372425  m  1  1  1
       0.1666666666666714       0.6666666666666714       0.4713282968372425  m  1  1  1
       0.6666666666666643       0.6666666666666714       0.4713282968372425  m  1  1  1
       0.3333333333333286       0.3333333333333286       0.5286717031627575  m  1  1  1
       0.8333333333333286       0.3333333333333286       0.5286717031627575  m  1  1  1
       0.3333333333333286       0.8333333333333286       0.5286717031627575  m  1  1  1
       0.8333333333333286       0.8333333333333286       0.5286717031627575  m  1  1  1
O  #label
0 #magnetism
8 #number of atoms
       0.0000000000000000       0.0000000000000000       0.5860101865651259  m  1  1  1
       0.5000000000000000       0.0000000000000000       0.5860101865651259  m  1  1  1
       0.0000000000000000       0.5000000000000000       0.5860101865651259  m  1  1  1
       0.5000000000000000       0.5000000000000000       0.5860101865651259  m  1  1  1
       0.1666666666666643       0.1666666666666643       0.6435890320251474  m  1  1  1
       0.6666666666666714       0.1666666666666643       0.6435890320251474  m  1  1  1
       0.1666666666666714       0.6666666666666714       0.6435890320251474  m  1  1  1
       0.6666666666666643       0.6666666666666714       0.6435890320251474  m  1  1  1
