supercell
    1.0000000000000000
    6.3806203706000000    5.5257788017999996    0.0000000000000000
   -1.5951544489999998    8.2886682026999985    0.0000000000000000
    0.0000000000000000    0.0000000000000000   20.8789997101000004
  Mo  S   Mo S
   7  14  7  14
Direct
    0.4761907035714259    0.9047618592857134    0.5063149930000037
    0.9047621321428565    0.6190475735714287    0.5063149930000037
    0.3333335607142871    0.3333332878571440    0.5063149930000037
    0.7619049892857177    0.0476190021428593    0.5063149930000037
    0.1904764178571412    0.7619047164285746    0.5063149930000037
    0.6190478464285718    0.4761904307142828    0.5063149930000037
    0.0476192750000024    0.1904761449999981    0.5063149930000037
    0.2380949982857175    0.9523810061428577    0.5812649730000032
    0.6666664268571409    0.6666667204285730    0.5812649730000032
    0.0952378554285715    0.3809524347142883    0.5812649730000032
    0.5238092840000022    0.0952381490000036    0.5812649730000032
    0.9523807125714256    0.8095238632857118    0.5812649730000032
    0.3809521411428562    0.5238095775714271    0.5812649730000032
    0.8095235697142869    0.2380952918571424    0.5812649730000032
    0.2380949982857175    0.9523810061428577    0.4313650129999971
    0.6666664268571409    0.6666667204285730    0.4313650129999971
    0.0952378554285715    0.3809524347142883    0.4313650129999971
    0.5238092840000022    0.0952381490000036    0.4313650129999971
    0.9523807125714256    0.8095238632857118    0.4313650129999971
    0.3809521411428562    0.5238095775714271    0.4313650129999971
    0.8095235697142869    0.2380952918571424    0.4313650129999971
    0.3809525628571393    0.0952381407142866    0.7563149930000037
    0.8095239914285699    0.9523809978571407    0.7563149930000037
    0.2380954200000005    0.8095238550000019    0.7563149930000037
    0.6666668485714311    0.6666667121428560    0.7563149930000037
    0.0952382771428546    0.5238095692857172    0.7563149930000037
    0.5238097057142852    0.3809524264285713    0.7563149930000037
    0.9523811342857158    0.2380952835714254    0.7563149930000037
    0.1904759961428582    0.0476190062857142    0.8312649730000032
    0.6190474247142888    0.9047618634285683    0.8312649730000032
    0.0476188532857122    0.7619047205714296    0.8312649730000032
    0.4761902818571428    0.6190475777142836    0.8312649730000032
    0.9047617104285735    0.4761904348571449    0.8312649730000032
    0.3333331389999969    0.3333332919999989    0.8312649730000032
    0.7619045675714275    0.1904761491428602    0.8312649730000032
    0.1904759961428582    0.0476190062857142    0.6813650129999971
    0.6190474247142888    0.9047618634285683    0.6813650129999971
    0.0476188532857122    0.7619047205714296    0.6813650129999971
    0.4761902818571428    0.6190475777142836    0.6813650129999971
    0.9047617104285735    0.4761904348571449    0.6813650129999971
    0.3333331389999969    0.3333332919999989    0.6813650129999971
    0.7619045675714275    0.1904761491428602    0.6813650129999971

