KPOINT_file_2
          51
Reciprocal
    0.33333333333333    0.33333333333333    0.00000000000000             1
    0.34000000000000    0.34000000000000    0.00000000000000             1
    0.34666666666667    0.34666666666667    0.00000000000000             1
    0.35333333333334    0.35333333333334    0.00000000000000             1
    0.36000000000000    0.36000000000000    0.00000000000000             1
    0.36666666666667    0.36666666666667    0.00000000000000             1
    0.37333333333334    0.37333333333334    0.00000000000000             1
    0.38000000000000    0.38000000000000    0.00000000000000             1
    0.38666666666667    0.38666666666667    0.00000000000000             1
    0.39333333333334    0.39333333333334    0.00000000000000             1
    0.40000000000000    0.40000000000000    0.00000000000000             1
    0.40666666666667    0.40666666666667    0.00000000000000             1
    0.41333333333334    0.41333333333334    0.00000000000000             1
    0.42000000000000    0.42000000000000    0.00000000000000             1
    0.42666666666667    0.42666666666667    0.00000000000000             1
    0.43333333333334    0.43333333333334    0.00000000000000             1
    0.44000000000000    0.44000000000000    0.00000000000000             1
    0.44666666666667    0.44666666666667    0.00000000000000             1
    0.45333333333334    0.45333333333334    0.00000000000000             1
    0.46000000000000    0.46000000000000    0.00000000000000             1
    0.46666666666667    0.46666666666667    0.00000000000000             1
    0.47333333333334    0.47333333333334    0.00000000000000             1
    0.48000000000000    0.48000000000000    0.00000000000000             1
    0.48666666666667    0.48666666666667    0.00000000000000             1
    0.49333333333334    0.49333333333334    0.00000000000000             1
    0.50000000000000    0.50000000000000    0.00000000000000             1
    0.50666666666667    0.50666666666667    0.00000000000000             1
    0.51333333333334    0.51333333333334    0.00000000000000             1
    0.52000000000000    0.52000000000000    0.00000000000000             1
    0.52666666666667    0.52666666666667    0.00000000000000             1
    0.53333333333334    0.53333333333334    0.00000000000000             1
    0.54000000000000    0.54000000000000    0.00000000000000             1
    0.54666666666667    0.54666666666667    0.00000000000000             1
    0.55333333333334    0.55333333333334    0.00000000000000             1
    0.56000000000000    0.56000000000000    0.00000000000000             1
    0.56666666666667    0.56666666666667    0.00000000000000             1
    0.57333333333334    0.57333333333334    0.00000000000000             1
    0.58000000000000    0.58000000000000    0.00000000000000             1
    0.58666666666667    0.58666666666667    0.00000000000000             1
    0.59333333333334    0.59333333333334    0.00000000000000             1
    0.60000000000000    0.60000000000000    0.00000000000000             1
    0.60666666666667    0.60666666666667    0.00000000000000             1
    0.61333333333334    0.61333333333334    0.00000000000000             1
    0.62000000000000    0.62000000000000    0.00000000000000             1
    0.62666666666667    0.62666666666667    0.00000000000000             1
    0.63333333333334    0.63333333333334    0.00000000000000             1
    0.64000000000000    0.64000000000000    0.00000000000000             1
    0.64666666666667    0.64666666666667    0.00000000000000             1
    0.65333333333334    0.65333333333334    0.00000000000000             1
    0.66000000000000    0.66000000000000    0.00000000000000             1
    0.66666666666667    0.66666666666667    0.00000000000000             1
