supercell
    1.0000000000000000
    9.8400001524000000    0.0000000000000000    0.0000000000000000
   -4.9200000764000000    8.5216901051999994    0.0000000000000000
    0.0000000000000000    0.0000000000000000   20.0000000000000000
  C   Mo  S 
  32  9   18
Direct
    0.0000000000000000    0.0000000000000000    0.2000000000000028           1
    0.2500000000000000    0.0000000000000000    0.2000000000000028           2
    0.5000000000000000    0.0000000000000000    0.2000000000000028           3
    0.7500000000000000    0.0000000000000000    0.2000000000000028           4
    0.0000000000000000    0.2500000000000000    0.2000000000000028           5
    0.2500000000000000    0.2500000000000000    0.2000000000000028           6
    0.5000000000000000    0.2500000000000000    0.2000000000000028           7
    0.7500000000000000    0.2500000000000000    0.2000000000000028           8
    0.0000000000000000    0.5000000000000000    0.2000000000000028           9
    0.2500000000000000    0.5000000000000000    0.2000000000000028          10
    0.5000000000000000    0.5000000000000000    0.2000000000000028          11
    0.7500000000000000    0.5000000000000000    0.2000000000000028          12
    0.0000000000000000    0.7500000000000000    0.2000000000000028          13
    0.2500000000000000    0.7500000000000000    0.2000000000000028          14
    0.5000000000000000    0.7500000000000000    0.2000000000000028          15
    0.7500000000000000    0.7500000000000000    0.2000000000000028          16
    0.1666667462500016    0.0833332464999970    0.2000000000000028          17
    0.4166667462500016    0.0833332464999970    0.2000000000000028          18
    0.6666667462500016    0.0833332464999970    0.2000000000000028          19
    0.9166667462500016    0.0833332464999970    0.2000000000000028          20
    0.1666667462500016    0.3333332464999970    0.2000000000000028          21
    0.4166667462500016    0.3333332464999970    0.2000000000000028          22
    0.6666667462500016    0.3333332464999970    0.2000000000000028          23
    0.9166667462500016    0.3333332464999970    0.2000000000000028          24
    0.1666667462500016    0.5833332464999970    0.2000000000000028          25
    0.4166667462500016    0.5833332464999970    0.2000000000000028          26
    0.6666667462500016    0.5833332464999970    0.2000000000000028          27
    0.9166667462500016    0.5833332464999970    0.2000000000000028          28
    0.1666667462500016    0.8333332464999970    0.2000000000000028          29
    0.4166667462500016    0.8333332464999970    0.2000000000000028          30
    0.6666667462500016    0.8333332464999970    0.2000000000000028          31
    0.9166667462500016    0.8333332464999970    0.2000000000000028          32
    0.2222223283333307    0.1111109953333340    0.5063149870000032           1
    0.5555556616666664    0.1111109953333340    0.5063149870000032           2
    0.8888889950000021    0.1111109953333340    0.5063149870000032           3
    0.2222223283333307    0.4444443286666697    0.5063149870000032           4
    0.5555556616666664    0.4444443286666697    0.5063149870000032           5
    0.8888889950000021    0.4444443286666697    0.5063149870000032           6
    0.2222223283333307    0.7777776619999983    0.5063149870000032           7
    0.5555556616666664    0.7777776619999983    0.5063149870000032           8
    0.8888889950000021    0.7777776619999983    0.5063149870000032           9
    0.1111109953333340    0.2222223283333307    0.5812651159999973          10
    0.4444443286666697    0.2222223283333307    0.5812651159999973          11
    0.7777776619999983    0.2222223283333307    0.5812651159999973          12
    0.1111109953333340    0.5555556616666664    0.5812651159999973          13
    0.4444443286666697    0.5555556616666664    0.5812651159999973          14
    0.7777776619999983    0.5555556616666664    0.5812651159999973          15
    0.1111109953333340    0.8888889950000021    0.5812651159999973          16
    0.4444443286666697    0.8888889950000021    0.5812651159999973          17
    0.7777776619999983    0.8888889950000021    0.5812651159999973          18
    0.1111109953333340    0.2222223283333307    0.4313648580000020          19
    0.4444443286666697    0.2222223283333307    0.4313648580000020          20
    0.7777776619999983    0.2222223283333307    0.4313648580000020          21
    0.1111109953333340    0.5555556616666664    0.4313648580000020          22
    0.4444443286666697    0.5555556616666664    0.4313648580000020          23
    0.7777776619999983    0.5555556616666664    0.4313648580000020          24
    0.1111109953333340    0.8888889950000021    0.4313648580000020          25
    0.4444443286666697    0.8888889950000021    0.4313648580000020          26
    0.7777776619999983    0.8888889950000021    0.4313648580000020          27
