 supercell
   1.000
    3.1903154850000002    0.0000000000000000    0.0000000000000000
    1.5951570066999996    2.7628946809000006    0.0000000000000000
    0.0000000000000013    0.0000000000000007   20.8790035248000052
   Mo   S 
    1    2
Direct
    0.3333330150000009    0.3333329860000021    0.4999999999999964    Mo1
    0.6666670139999979    0.6666669849999991    0.4250498710000024     S1
    0.6666670139999979    0.6666669849999991    0.5749501289999976     S2
