graphene_unit_cell                      
1.0
        2.4600000381         0.0000000000         0.0000000000
        1.2300001609         2.1304224445         0.0000000000
        0.0000000000         0.0000000000        20.0000000000
    C  
    2  
Direct
     0.000000000         0.000000000         0.417997479
     0.333333343         0.333333015         0.418006092
