supercell
    1.0000000000000000
   12.3000001905000005    0.0000000000000000    0.0000000000000000
    6.1500008044999994   10.6521122225000013    0.0000000000000000
    0.0000000000000000    0.0000000000000000   20.0000000000000000
  C    O 
  50   1
Direct
    0.0000000000000000    0.0000000000000000    0.4179974790000003           1
    0.2000000000000028    0.0000000000000000    0.4179974790000003           2
    0.3999999999999986    0.0000000000000000    0.4179974790000003           3
    0.6000000000000014    0.0000000000000000    0.4179974790000003           4
    0.7999999999999972    0.0000000000000000    0.4179974790000003           5
    0.0000000000000000    0.2000000000000028    0.4179974790000003           6
    0.2000000000000028    0.2000000000000028    0.4179974790000003           7
    0.3999999999999986    0.2000000000000028    0.4179974790000003           8
    0.6000000000000014    0.2000000000000028    0.4179974790000003           9
    0.7999999999999972    0.2000000000000028    0.4179974790000003          10
    0.0000000000000000    0.3999999999999986    0.4179974790000003          11
    0.2000000000000028    0.3999999999999986    0.4179974790000003          12
    0.3999999999999986    0.3999999999999986    0.4179974790000003          13
    0.6000000000000014    0.3999999999999986    0.4179974790000003          14
    0.7999999999999972    0.3999999999999986    0.4179974790000003          15
    0.0000000000000000    0.6000000000000014    0.4179974790000003          16
    0.2000000000000028    0.6000000000000014    0.4179974790000003          17
    0.3999999999999986    0.6000000000000014    0.4179974790000003          18
    0.6000000000000014    0.6000000000000014    0.4179974790000003          19
    0.7999999999999972    0.6000000000000014    0.4179974790000003          20
    0.0000000000000000    0.7999999999999972    0.4179974790000003          21
    0.2000000000000028    0.7999999999999972    0.4179974790000003          22
    0.3999999999999986    0.7999999999999972    0.4179974790000003          23
    0.6000000000000014    0.7999999999999972    0.4179974790000003          24
    0.7999999999999972    0.7999999999999972    0.4179974790000003          25
    0.0666666685999999    0.0666666030000016    0.4180060919999988          26
    0.2666666686000028    0.0666666030000016    0.4180060919999988          27
    0.4666666685999985    0.0666666030000016    0.4180060919999988          28
    0.6666666686000013    0.0666666030000016    0.4180060919999988          29
    0.8666666685999971    0.0666666030000016    0.4180060919999988          30
    0.0666666685999999    0.2666666029999973    0.4180060919999988          31
    0.2666666686000028    0.2666666029999973    0.4180060919999988          32
    0.4666666685999985    0.2666666029999973    0.4180060919999988          33
    0.6666666686000013    0.2666666029999973    0.4180060919999988          34
    0.8666666685999971    0.2666666029999973    0.4180060919999988          35
    0.0666666685999999    0.4666666030000002    0.4180060919999988          36
    0.2666666686000028    0.4666666030000002    0.4180060919999988          37
    0.4666666685999985    0.4666666030000002    0.4180060919999988          38
    0.6666666686000013    0.4666666030000002    0.4180060919999988          39
    0.8666666685999971    0.4666666030000002    0.4180060919999988          40
    0.0666666685999999    0.6666666030000030    0.4180060919999988          41
    0.2666666686000028    0.6666666030000030    0.4180060919999988          42
    0.4666666685999985    0.6666666030000030    0.4180060919999988          43
    0.6666666686000013    0.6666666030000030    0.4180060919999988          44
    0.8666666685999971    0.6666666030000030    0.4180060919999988          45
    0.0666666685999999    0.8666666029999988    0.4180060919999988          46
    0.2666666686000028    0.8666666029999988    0.4180060919999988          47
    0.4666666685999985    0.8666666029999988    0.4180060919999988          48
    0.6666666686000013    0.8666666029999988    0.4180060919999988          49
    0.8666666685999971    0.8666666029999988    0.4180060919999988          50
    0.3999999999999986    0.3999999999999986    0.4680060919999988
