KPOINT_file_1
          50
Reciprocal
    0.00000000000000    0.00000000000000    0.00000000000000             1
    0.00666666666667    0.00666666666667    0.00000000000000             1
    0.01333333333333    0.01333333333333    0.00000000000000             1
    0.02000000000000    0.02000000000000    0.00000000000000             1
    0.02666666666667    0.02666666666667    0.00000000000000             1
    0.03333333333333    0.03333333333333    0.00000000000000             1
    0.04000000000000    0.04000000000000    0.00000000000000             1
    0.04666666666667    0.04666666666667    0.00000000000000             1
    0.05333333333333    0.05333333333333    0.00000000000000             1
    0.06000000000000    0.06000000000000    0.00000000000000             1
    0.06666666666667    0.06666666666667    0.00000000000000             1
    0.07333333333333    0.07333333333333    0.00000000000000             1
    0.08000000000000    0.08000000000000    0.00000000000000             1
    0.08666666666667    0.08666666666667    0.00000000000000             1
    0.09333333333333    0.09333333333333    0.00000000000000             1
    0.10000000000000    0.10000000000000    0.00000000000000             1
    0.10666666666667    0.10666666666667    0.00000000000000             1
    0.11333333333333    0.11333333333333    0.00000000000000             1
    0.12000000000000    0.12000000000000    0.00000000000000             1
    0.12666666666667    0.12666666666667    0.00000000000000             1
    0.13333333333333    0.13333333333333    0.00000000000000             1
    0.14000000000000    0.14000000000000    0.00000000000000             1
    0.14666666666667    0.14666666666667    0.00000000000000             1
    0.15333333333333    0.15333333333333    0.00000000000000             1
    0.16000000000000    0.16000000000000    0.00000000000000             1
    0.16666666666667    0.16666666666667    0.00000000000000             1
    0.17333333333333    0.17333333333333    0.00000000000000             1
    0.18000000000000    0.18000000000000    0.00000000000000             1
    0.18666666666667    0.18666666666667    0.00000000000000             1
    0.19333333333333    0.19333333333333    0.00000000000000             1
    0.20000000000000    0.20000000000000    0.00000000000000             1
    0.20666666666667    0.20666666666667    0.00000000000000             1
    0.21333333333333    0.21333333333333    0.00000000000000             1
    0.22000000000000    0.22000000000000    0.00000000000000             1
    0.22666666666667    0.22666666666667    0.00000000000000             1
    0.23333333333333    0.23333333333333    0.00000000000000             1
    0.24000000000000    0.24000000000000    0.00000000000000             1
    0.24666666666667    0.24666666666667    0.00000000000000             1
    0.25333333333333    0.25333333333333    0.00000000000000             1
    0.26000000000000    0.26000000000000    0.00000000000000             1
    0.26666666666667    0.26666666666667    0.00000000000000             1
    0.27333333333333    0.27333333333333    0.00000000000000             1
    0.28000000000000    0.28000000000000    0.00000000000000             1
    0.28666666666667    0.28666666666667    0.00000000000000             1
    0.29333333333333    0.29333333333333    0.00000000000000             1
    0.30000000000000    0.30000000000000    0.00000000000000             1
    0.30666666666667    0.30666666666667    0.00000000000000             1
    0.31333333333333    0.31333333333333    0.00000000000000             1
    0.32000000000000    0.32000000000000    0.00000000000000             1
    0.32666666666667    0.32666666666667    0.00000000000000             1
