#STRU Generated by pos2stru.
ATOMIC_SPECIES
C   1.00  ./C_ONCV_PBE-1.2.upf
O   1.00  ./O_ONCV_PBE-1.2.upf
 
NUMERICAL_ORBITAL
C_gga_6au_60Ry_2s2p1d.orb
O_gga_6au_60Ry_2s2p1d.orb

LATTICE_CONSTANT
       1.8897259885789233    # Angstrom to Bohr
 
LATTICE_VECTORS
      12.3190522194999996       0.0000000000000000       0.0000000000000000
       6.1728088714999991      10.6762694280000012       0.0000000000000000
       0.0000000000000000       0.0000000000000000      15.4974455832999993
 
ATOMIC_POSITIONS
Direct

 
C  #label
0 #magnetism
49 #number of atoms
       0.1333333333319970       0.1333333333319970       0.5000000000000000  m  1  1  1
       0.3333333333319999       0.1333333333319970       0.5000000000000000  m  1  1  1
       0.5333333333320027       0.1333333333319970       0.5000000000000000  m  1  1  1
       0.7333333333319985       0.1333333333319970       0.5000000000000000  m  1  1  1
       0.9333333333320013       0.1333333333319970       0.5000000000000000  m  1  1  1
       0.1333333333319970       0.3333333333319999       0.5000000000000000  m  1  1  1
       0.3333333333319999       0.3333333333319999       0.5000000000000000  m  1  1  1
       0.5333333333320027       0.3333333333319999       0.5000000000000000  m  1  1  1
       0.7333333333319985       0.3333333333319999       0.5000000000000000  m  1  1  1
       0.9333333333320013       0.3333333333319999       0.5000000000000000  m  1  1  1
       0.1333333333319970       0.5333333333320027       0.5000000000000000  m  1  1  1
       0.3333333333319999       0.5333333333320027       0.5000000000000000  m  1  1  1
       0.5333333333320027       0.5333333333320027       0.5000000000000000  m  1  1  1
       0.7333333333319985       0.5333333333320027       0.5000000000000000  m  1  1  1
       0.9333333333320013       0.5333333333320027       0.5000000000000000  m  1  1  1
       0.1333333333319970       0.7333333333319985       0.5000000000000000  m  1  1  1
       0.3333333333319999       0.7333333333319985       0.5000000000000000  m  1  1  1
       0.5333333333320027       0.7333333333319985       0.5000000000000000  m  1  1  1
       0.7333333333319985       0.7333333333319985       0.5000000000000000  m  1  1  1
       0.9333333333320013       0.7333333333319985       0.5000000000000000  m  1  1  1
       0.1333333333319970       0.9333333333320013       0.5000000000000000  m  1  1  1
       0.3333333333319999       0.9333333333320013       0.5000000000000000  m  1  1  1
       0.5333333333320027       0.9333333333320013       0.5000000000000000  m  1  1  1
       0.7333333333319985       0.9333333333320013       0.5000000000000000  m  1  1  1
       0.9333333333320013       0.9333333333320013       0.5000000000000000  m  1  1  1
       0.0666666666660021       0.0666666666660021       0.5000000000000000  m  1  1  1
       0.2666666666659978       0.0666666666660021       0.5000000000000000  m  1  1  1
       0.4666666666660007       0.0666666666660021       0.5000000000000000  m  1  1  1
       0.6666666666660035       0.0666666666660021       0.5000000000000000  m  1  1  1
       0.8666666666659992       0.0666666666660021       0.5000000000000000  m  1  1  1
       0.0666666666660021       0.2666666666659978       0.5000000000000000  m  1  1  1
       0.2666666666659978       0.2666666666659978       0.5000000000000000  m  1  1  1
       0.4666666666660007       0.2666666666659978       0.5000000000000000  m  1  1  1
       0.6666666666660035       0.2666666666659978       0.5000000000000000  m  1  1  1
       0.8666666666659992       0.2666666666659978       0.5000000000000000  m  1  1  1
       0.0666666666660021       0.4666666666660007       0.5000000000000000  m  1  1  1
       0.2666666666659978       0.4666666666660007       0.5000000000000000  m  1  1  1
       0.6666666666660035       0.4666666666660007       0.5000000000000000  m  1  1  1
       0.8666666666659992       0.4666666666660007       0.5000000000000000  m  1  1  1
       0.0666666666660021       0.6666666666660035       0.5000000000000000  m  1  1  1
       0.2666666666659978       0.6666666666660035       0.5000000000000000  m  1  1  1
       0.4666666666660007       0.6666666666660035       0.5000000000000000  m  1  1  1
       0.6666666666660035       0.6666666666660035       0.5000000000000000  m  1  1  1
       0.8666666666659992       0.6666666666660035       0.5000000000000000  m  1  1  1
       0.0666666666660021       0.8666666666659992       0.5000000000000000  m  1  1  1
       0.2666666666659978       0.8666666666659992       0.5000000000000000  m  1  1  1
       0.4666666666660007       0.8666666666659992       0.5000000000000000  m  1  1  1
       0.6666666666660035       0.8666666666659992       0.5000000000000000  m  1  1  1
       0.8666666666659992       0.8666666666659992       0.5000000000000000  m  1  1  1
O  #label
0 #magnetism
1 #number of atoms
       0.4666666666660007       0.4666666666660007       0.5000000000000000  m  1  1  1
