Mo2 S4
1.0
        3.1903154850         0.0000000000         0.0000000000
       -1.5951570067         2.7628946809         0.0000000000
        0.0000000000         0.0000000000        20.8790035248
   Mo    S
    1    2
Direct
     0.666666985         0.333332986         0.506314987
     0.333332986         0.666666985         0.581265116
     0.333332986         0.666666985         0.431364858
