#STRU Generated by pos2stru.
ATOMIC_SPECIES
C   1.00  ./
Mo  1.00  ./
S   1.00  ./
 
NUMERICAL_ORBITAL
 
LATTICE_CONSTANT
       1.8897259885789233    # Angstrom to Bohr
 
LATTICE_VECTORS
       9.8400001524000000       0.0000000000000000       0.0000000000000000
      -4.9200000764000000       8.5216901051999994       0.0000000000000000
       0.0000000000000000       0.0000000000000000      20.0000000000000000
 
ATOMIC_POSITIONS
Direct
 
C  #label
0 #magnetism
32 #number of atoms
       0.0000000000000000       0.0000000000000000       0.2000000000000028  m  1  1  1
       0.2500000000000000       0.0000000000000000       0.2000000000000028  m  1  1  1
       0.5000000000000000       0.0000000000000000       0.2000000000000028  m  1  1  1
       0.7500000000000000       0.0000000000000000       0.2000000000000028  m  1  1  1
       0.0000000000000000       0.2500000000000000       0.2000000000000028  m  1  1  1
       0.2500000000000000       0.2500000000000000       0.2000000000000028  m  1  1  1
       0.5000000000000000       0.2500000000000000       0.2000000000000028  m  1  1  1
       0.7500000000000000       0.2500000000000000       0.2000000000000028  m  1  1  1
       0.0000000000000000       0.5000000000000000       0.2000000000000028  m  1  1  1
       0.2500000000000000       0.5000000000000000       0.2000000000000028  m  1  1  1
       0.5000000000000000       0.5000000000000000       0.2000000000000028  m  1  1  1
       0.7500000000000000       0.5000000000000000       0.2000000000000028  m  1  1  1
       0.0000000000000000       0.7500000000000000       0.2000000000000028  m  1  1  1
       0.2500000000000000       0.7500000000000000       0.2000000000000028  m  1  1  1
       0.5000000000000000       0.7500000000000000       0.2000000000000028  m  1  1  1
       0.7500000000000000       0.7500000000000000       0.2000000000000028  m  1  1  1
       0.1666667462500016       0.0833332464999970       0.2000000000000028  m  1  1  1
       0.4166667462500016       0.0833332464999970       0.2000000000000028  m  1  1  1
       0.6666667462500016       0.0833332464999970       0.2000000000000028  m  1  1  1
       0.9166667462500016       0.0833332464999970       0.2000000000000028  m  1  1  1
       0.1666667462500016       0.3333332464999970       0.2000000000000028  m  1  1  1
       0.4166667462500016       0.3333332464999970       0.2000000000000028  m  1  1  1
       0.6666667462500016       0.3333332464999970       0.2000000000000028  m  1  1  1
       0.9166667462500016       0.3333332464999970       0.2000000000000028  m  1  1  1
       0.1666667462500016       0.5833332464999970       0.2000000000000028  m  1  1  1
       0.4166667462500016       0.5833332464999970       0.2000000000000028  m  1  1  1
       0.6666667462500016       0.5833332464999970       0.2000000000000028  m  1  1  1
       0.9166667462500016       0.5833332464999970       0.2000000000000028  m  1  1  1
       0.1666667462500016       0.8333332464999970       0.2000000000000028  m  1  1  1
       0.4166667462500016       0.8333332464999970       0.2000000000000028  m  1  1  1
       0.6666667462500016       0.8333332464999970       0.2000000000000028  m  1  1  1
       0.9166667462500016       0.8333332464999970       0.2000000000000028  m  1  1  1
Mo #label
0 #magnetism
9 #number of atoms
       0.2222223283333307       0.1111109953333340       0.5063149870000032  m  1  1  1
       0.5555556616666664       0.1111109953333340       0.5063149870000032  m  1  1  1
       0.8888889950000021       0.1111109953333340       0.5063149870000032  m  1  1  1
       0.2222223283333307       0.4444443286666697       0.5063149870000032  m  1  1  1
       0.5555556616666664       0.4444443286666697       0.5063149870000032  m  1  1  1
       0.8888889950000021       0.4444443286666697       0.5063149870000032  m  1  1  1
       0.2222223283333307       0.7777776619999983       0.5063149870000032  m  1  1  1
       0.5555556616666664       0.7777776619999983       0.5063149870000032  m  1  1  1
       0.8888889950000021       0.7777776619999983       0.5063149870000032  m  1  1  1
S  #label
0 #magnetism
18 #number of atoms
       0.1111109953333340       0.2222223283333307       0.5812651159999973  m  1  1  1
       0.4444443286666697       0.2222223283333307       0.5812651159999973  m  1  1  1
       0.7777776619999983       0.2222223283333307       0.5812651159999973  m  1  1  1
       0.1111109953333340       0.5555556616666664       0.5812651159999973  m  1  1  1
       0.4444443286666697       0.5555556616666664       0.5812651159999973  m  1  1  1
       0.7777776619999983       0.5555556616666664       0.5812651159999973  m  1  1  1
       0.1111109953333340       0.8888889950000021       0.5812651159999973  m  1  1  1
       0.4444443286666697       0.8888889950000021       0.5812651159999973  m  1  1  1
       0.7777776619999983       0.8888889950000021       0.5812651159999973  m  1  1  1
       0.1111109953333340       0.2222223283333307       0.4313648580000020  m  1  1  1
       0.4444443286666697       0.2222223283333307       0.4313648580000020  m  1  1  1
       0.7777776619999983       0.2222223283333307       0.4313648580000020  m  1  1  1
       0.1111109953333340       0.5555556616666664       0.4313648580000020  m  1  1  1
       0.4444443286666697       0.5555556616666664       0.4313648580000020  m  1  1  1
       0.7777776619999983       0.5555556616666664       0.4313648580000020  m  1  1  1
       0.1111109953333340       0.8888889950000021       0.4313648580000020  m  1  1  1
       0.4444443286666697       0.8888889950000021       0.4313648580000020  m  1  1  1
       0.7777776619999983       0.8888889950000021       0.4313648580000020  m  1  1  1
