INPUT_PARAMETERS
#Parameters (General)
kpoint_file             KLINES
pseudo_dir              ./
calculation             nscf
ntype                   1
#Parameters (Methos)
basis_type              lcao
#Parameters (Accuracy)
ecutwfc                   60
#Parameters (File)
#out_mat_hs                 1
out_wfc_lcao                1
init_chg                file
out_band                1

