Graphene M-G-K
101
line
reciprocal
 0.50000000000000    1.00000000000000    0.00000000000000   1
 0.00000000000000    0.00000000000000    0.00000000000000   1

 0.00000000000000    0.00000000000000    0.00000000000000   1
 1.33333333333333    0.33333333333333    0.00000000000000   1
