graphene_unit_cell
   1.000000000000000
   2.460000000000000   0.000000000000000   0.000000000000000
  -1.230000000000000   2.130422493309719   0.000000000000000
   0.000000000000000   0.000000000000000  10.000000000000000
   C
   2 
Direct
   0.000000000000000   0.000000000000000   0.500000000000000
   0.666666666666666   0.333333333333333   0.500000000000000 
