supercell
    1.0000000000000000
   12.3000000000000007    0.0000000000000000    0.0000000000000000
   -6.1500000000000004   10.6521124665485960    0.0000000000000000
    0.0000000000000000    0.0000000000000000   10.0000000000000000
  C 
  49
Direct
    0.0000000000000000    0.0000000000000000    0.5000000000000000
    0.2000000000000028    0.0000000000000000    0.5000000000000000
    0.3999999999999986    0.0000000000000000    0.5000000000000000
    0.6000000000000014    0.0000000000000000    0.5000000000000000
    0.7999999999999972    0.0000000000000000    0.5000000000000000
    0.0000000000000000    0.2000000000000028    0.5000000000000000
    0.2000000000000028    0.2000000000000028    0.5000000000000000
    0.3999999999999986    0.2000000000000028    0.5000000000000000
    0.6000000000000014    0.2000000000000028    0.5000000000000000
    0.7999999999999972    0.2000000000000028    0.5000000000000000
    0.0000000000000000    0.3999999999999986    0.5000000000000000
    0.2000000000000028    0.3999999999999986    0.5000000000000000
    0.3999999999999986    0.3999999999999986    0.5000000000000000
    0.6000000000000014    0.3999999999999986    0.5000000000000000
    0.7999999999999972    0.3999999999999986    0.5000000000000000
    0.0000000000000000    0.6000000000000014    0.5000000000000000
    0.2000000000000028    0.6000000000000014    0.5000000000000000
    0.3999999999999986    0.6000000000000014    0.5000000000000000
    0.6000000000000014    0.6000000000000014    0.5000000000000000
    0.7999999999999972    0.6000000000000014    0.5000000000000000
    0.0000000000000000    0.7999999999999972    0.5000000000000000
    0.2000000000000028    0.7999999999999972    0.5000000000000000
    0.3999999999999986    0.7999999999999972    0.5000000000000000
    0.6000000000000014    0.7999999999999972    0.5000000000000000
    0.7999999999999972    0.7999999999999972    0.5000000000000000
    0.1333333333333329    0.0666666666666700    0.5000000000000000
    0.3333333333333357    0.0666666666666700    0.5000000000000000
    0.5333333333333314    0.0666666666666700    0.5000000000000000
    0.7333333333333343    0.0666666666666700    0.5000000000000000
    0.9333333333333300    0.0666666666666700    0.5000000000000000
    0.1333333333333329    0.2666666666666657    0.5000000000000000
    0.5333333333333314    0.2666666666666657    0.5000000000000000
    0.7333333333333343    0.2666666666666657    0.5000000000000000
    0.9333333333333300    0.2666666666666657    0.5000000000000000
    0.1333333333333329    0.4666666666666686    0.5000000000000000
    0.3333333333333357    0.4666666666666686    0.5000000000000000
    0.5333333333333314    0.4666666666666686    0.5000000000000000
    0.7333333333333343    0.4666666666666686    0.5000000000000000
    0.9333333333333300    0.4666666666666686    0.5000000000000000
    0.1333333333333329    0.6666666666666643    0.5000000000000000
    0.3333333333333357    0.6666666666666643    0.5000000000000000
    0.5333333333333314    0.6666666666666643    0.5000000000000000
    0.7333333333333343    0.6666666666666643    0.5000000000000000
    0.9333333333333300    0.6666666666666643    0.5000000000000000
    0.1333333333333329    0.8666666666666671    0.5000000000000000
    0.3333333333333357    0.8666666666666671    0.5000000000000000
    0.5333333333333314    0.8666666666666671    0.5000000000000000
    0.7333333333333343    0.8666666666666671    0.5000000000000000
    0.9333333333333300    0.8666666666666671    0.5000000000000000
