&CONTROL
calculation = "scf",
restart_mode = "from_scratch",
prefix = "graphene",
outdir = "./",
pseudo_dir = "./",
wf_collect=.TRUE.
nstep=1
!etot_conv_thr=1.0D-6
!forc_conv_thr=1.0D-4
/
&SYSTEM
ibrav=0,ecutwfc=80,ecutrho=700,
nat=8,ntyp=1,occupations='smearing',degauss= 0.001,smearing='gauss'
/
&ELECTRONS
mixing_beta=0.7,conv_thr=1D-8,electron_maxstep=200,
/
&ions
/
&cell
! cell_factor = 4 !the defalut value is not proper here.
!cell_dofree="ibrav"
/
CELL_PARAMETERS {angstrom}
     4.9200000763000000    0.0000000000000000    0.0000000000000000
    -2.4600000381000000    4.2608450526999997    0.0000000000000000
     0.0000000000000000    0.0000000000000000   10.0000000000000000
ATOMIC_SPECIES
C  12.0107  C.UPF
ATOMIC_POSITIONS (crystal)
C  0.0000000000000000  0.0000000000000000  0.5000000000000000
C  0.0000000000000000  0.5000000000000000  0.5000000000000000
C  0.5000000000000000  0.0000000000000000  0.5000000000000000
C  0.5000000000000000  0.5000000000000000  0.5000000000000000
C  0.3333333429999996  0.1666666719999981  0.5000000000000000
C  0.3333333429999996  0.6666666870000029  0.5000000000000000
C  0.8333333730000021  0.1666666719999981  0.5000000000000000
C  0.8333333730000021  0.6666666870000029  0.5000000000000000
K_POINTS (automatic)
 12 12 1 0 0 0

