automatic mesh
 0
G        
  5   5   1  
  0   0   0
