Ge_2+Al2O3_rt3                          
   1.00000000000000     
     7.0980358460254411   -4.0980529064204037    0.0000000000000000
     0.0000000000000000    8.1961058128408073    0.0000000000000000
     0.0000000000000000    0.0000000000000000   39.4181017950076082
   Al   O    Ge
    36    54    16
Selective dynamics
Direct
  0.0040905972256482  0.3341687203527144  0.3527031234821649   T   T   T
  0.6658312796473069  0.6699218768729054  0.3527031234821649   T   T   T
  0.3300781231270591  0.9959094027743518  0.3527031234821649   T   T   T
  0.0000000000000000  0.0000000000000000  0.3855378331294190   F   F   F
  0.6666666666666643  0.3333333333333357  0.3855378331294190   F   F   F
  0.3333333333333357  0.6666666666666643  0.3855378331294190   F   F   F
  0.3333333333333286  0.3333333333333357  0.3922824063691195   F   F   F
  0.0000000000000000  0.6666666666666643  0.3922824063691195   F   F   F
  0.6666666666666643  0.0000000000000000  0.3922824063691195   F   F   F
  0.0000000000000000  0.3333333333333357  0.4399516527114855   F   F   F
  0.6666666666666714  0.6666666666666643  0.4399516527114855   F   F   F
  0.3333333333333357  0.0000000000000000  0.4399516527114855   F   F   F
  0.0000000000000000  0.0000000000000000  0.4512112765036633   F   F   F
  0.6666666666666643  0.3333333333333357  0.4512112765036633   F   F   F
  0.3333333333333357  0.6666666666666643  0.4512112765036633   F   F   F
  0.3333333333333286  0.3333333333333357  0.4935202217062908   F   F   F
  0.0000000000000000  0.6666666666666643  0.4935202217062908   F   F   F
  0.6666666666666643  0.0000000000000000  0.4935202217062908   F   F   F
  0.0000000000000000  0.3333333333333357  0.5064797782937092   F   F   F
  0.6666666666666714  0.6666666666666643  0.5064797782937092   F   F   F
  0.3333333333333357  0.0000000000000000  0.5064797782937092   F   F   F
  0.0000000000000000  0.0000000000000000  0.5487887234963367   F   F   F
  0.6666666666666643  0.3333333333333357  0.5487887234963367   F   F   F
  0.3333333333333357  0.6666666666666643  0.5487887234963367   F   F   F
  0.3333333333333286  0.3333333333333357  0.5600483472885145   F   F   F
  0.0000000000000000  0.6666666666666643  0.5600483472885145   F   F   F
  0.6666666666666643  0.0000000000000000  0.5600483472885145   F   F   F
  0.0000000000000000  0.3333333333333357  0.6077175936308805   F   F   F
  0.6666666666666714  0.6666666666666643  0.6077175936308805   F   F   F
  0.3333333333333357  0.0000000000000000  0.6077175936308805   F   F   F
  0.0000000000000000  0.0000000000000000  0.6144621668705810   F   F   F
  0.6666666666666643  0.3333333333333357  0.6144621668705810   F   F   F
  0.3333333333333357  0.6666666666666643  0.6144621668705810   F   F   F
  0.3341687203527073  0.3300781231270591  0.6472968765178919   T   T   T
  0.9959094027743518  0.6658312796472998  0.6472968765178919   T   T   T
  0.6699218768729054  0.0040905972256482  0.6472968765178919   T   T   T
  0.2199941398683762  0.1216312525158969  0.3617531427358287   T   T   T
  0.8875386228906237  0.4541295733846127  0.3621044109838323   T   T   T
  0.5533496668298028  0.7913789862233145  0.3624732652394442   T   T   T
  0.2380293193935827  0.4466503331702256  0.3624732652394442   T   T   T
  0.9016371126475065  0.7800058601315811  0.3617531427358287   T   T   T
  0.5665909504938682  0.1124613771093124  0.3621044109838323   T   T   T
  0.5458704266154513  0.4334090495060963  0.3621044109838323   T   T   T
  0.2086210137766429  0.7619706806064457  0.3624732652394442   T   T   T
  0.8783687474840747  0.0983628873524651  0.3617531427358287   T   T   T
  0.7704882239325030  0.2297957508676163  0.4176757531512152   F   F   F
  0.4371548905991673  0.5631290842009520  0.4176757531512152   F   F   F
  0.1038215572658387  0.8964624175342877  0.4176757531512152   F   F   F
  0.1035375824657123  0.2073591397315511  0.4176757531512152   F   F   F
  0.7702042491323837  0.5406924730648868  0.4176757531512152   F   F   F
  0.4368709157990480  0.8740258063982154  0.4176757531512152   F   F   F
  0.4593075269351132  0.2295117760674970  0.4176757531512152   F   F   F
  0.1259741936017846  0.5628451094008327  0.4176757531512152   F   F   F
  0.7926408602684489  0.8961784427341613  0.4176757531512152   F   F   F
  0.8987409862212488  0.1293329111565953  0.4727273268972283   F   F   F
  0.5654076528879131  0.4626662444899310  0.4727273268972283   F   F   F
  0.2320743195545774  0.7959995778232667  0.4727273268972283   F   F   F
  0.8972585916020179  0.4345923471120869  0.4727273268972283   F   F   F
  0.5639252582686822  0.7679256804454226  0.4727273268972283   F   F   F
  0.2305919249353465  0.1012590137787512  0.4727273268972283   F   F   F
  0.2040004221767404  0.4360747417313178  0.4727273268972283   F   F   F
  0.8706670888434047  0.7694080750646535  0.4727273268972283   F   F   F
  0.5373337555100690  0.1027414083979821  0.4727273268972283   F   F   F
  0.1293329111565953  0.2305919249353536  0.5272726731027717   F   F   F
  0.7959995778232667  0.5639252582686822  0.5272726731027717   F   F   F
  0.4626662444899310  0.8972585916020179  0.5272726731027717   F   F   F
  0.4360747417313178  0.2320743195545774  0.5272726731027717   F   F   F
  0.1027414083979821  0.5654076528879131  0.5272726731027717   F   F   F
  0.7694080750646464  0.8987409862212488  0.5272726731027717   F   F   F
  0.4345923471120869  0.5373337555100690  0.5272726731027717   F   F   F
  0.1012590137787512  0.8706670888434047  0.5272726731027717   F   F   F
  0.7679256804454226  0.2040004221767404  0.5272726731027717   F   F   F
  0.8961784427341613  0.1035375824657123  0.5823242468487848   F   F   F
  0.5628451094008327  0.4368709157990480  0.5823242468487848   F   F   F
  0.2295117760674970  0.7702042491323837  0.5823242468487848   F   F   F
  0.2073591397315511  0.1038215572658387  0.5823242468487848   F   F   F
  0.8740258063982154  0.4371548905991673  0.5823242468487848   F   F   F
  0.5406924730648868  0.7704882239325030  0.5823242468487848   F   F   F
  0.2297957508676163  0.4593075269351132  0.5823242468487848   F   F   F
  0.8964624175342877  0.7926408602684489  0.5823242468487848   F   F   F
  0.5631290842009520  0.1259741936017846  0.5823242468487848   F   F   F
  0.7913789862233216  0.2380293193935827  0.6375267347605842   T   T   T
  0.4541295733846056  0.5665909504938540  0.6378955890162175   T   T   T
  0.1216312525158969  0.9016371126475065  0.6382468572641713   T   T   T
  0.0983628873524651  0.2199941398683762  0.6382468572641713   T   T   T
  0.7619706806064528  0.5533496668298028  0.6375267347605842   T   T   T
  0.4334090495060963  0.8875386228906237  0.6378955890162175   T   T   T
  0.1124613771093124  0.5458704266154513  0.6378955890162175   T   T   T
  0.7800058601315811  0.8783687474840747  0.6382468572641713   T   T   T
  0.4466503331702256  0.2086210137766429  0.6375267347605842   T   T   T
  0.0000000000000000  0.0000000000000000  0.7070142389284015   T   T   T
  0.4770848747878631  0.9856640841338518  0.7091083880188123   T   T   T
  0.0143359158661482  0.4914207906539829  0.7091083880188123   T   T   T
  0.5085792093459887  0.5229151252121440  0.7091083880188123   T   T   T
  0.3353406253887172  0.1828904331676071  0.7251506497856539   T   T   T
  0.8171095668323858  0.1524501922211243  0.7251506497856539   T   T   T
  0.3333333333333357  0.6666666666666714  0.7351582610797891   T   T   T
  0.8475498077789538  0.6646593746113467  0.7251506497856539   T   T   T
  0.0000000000000000  0.0000000000000000  0.2929857610716340   T   T   T
  0.5229151252121440  0.0143359158661482  0.2908916119811380   T   T   T
  0.9856640841338518  0.5085792093459887  0.2908916119811380   T   T   T
  0.4914207906539758  0.4770848747878631  0.2908916119811380   T   T   T
  0.6646593746113396  0.8171095668323787  0.2748493502143532   T   T   T
  0.1828904331676000  0.8475498077789538  0.2748493502143532   T   T   T
  0.6666666666666643  0.3333333333333286  0.2648417389202393   T   T   T
  0.1524501922211314  0.3353406253887172  0.2748493502143532   T   T   T
 
  0.00000000E+00  0.00000000E+00  0.00000000E+00
  0.00000000E+00  0.00000000E+00  0.00000000E+00
  0.00000000E+00  0.00000000E+00  0.00000000E+00
  0.00000000E+00  0.00000000E+00  0.00000000E+00
  0.00000000E+00  0.00000000E+00  0.00000000E+00
  0.00000000E+00  0.00000000E+00  0.00000000E+00
  0.00000000E+00  0.00000000E+00  0.00000000E+00
  0.00000000E+00  0.00000000E+00  0.00000000E+00
  0.00000000E+00  0.00000000E+00  0.00000000E+00
  0.00000000E+00  0.00000000E+00  0.00000000E+00
  0.00000000E+00  0.00000000E+00  0.00000000E+00
  0.00000000E+00  0.00000000E+00  0.00000000E+00
  0.00000000E+00  0.00000000E+00  0.00000000E+00
  0.00000000E+00  0.00000000E+00  0.00000000E+00
  0.00000000E+00  0.00000000E+00  0.00000000E+00
  0.00000000E+00  0.00000000E+00  0.00000000E+00
  0.00000000E+00  0.00000000E+00  0.00000000E+00
  0.00000000E+00  0.00000000E+00  0.00000000E+00
  0.00000000E+00  0.00000000E+00  0.00000000E+00
  0.00000000E+00  0.00000000E+00  0.00000000E+00
  0.00000000E+00  0.00000000E+00  0.00000000E+00
  0.00000000E+00  0.00000000E+00  0.00000000E+00
  0.00000000E+00  0.00000000E+00  0.00000000E+00
  0.00000000E+00  0.00000000E+00  0.00000000E+00
  0.00000000E+00  0.00000000E+00  0.00000000E+00
  0.00000000E+00  0.00000000E+00  0.00000000E+00
  0.00000000E+00  0.00000000E+00  0.00000000E+00
  0.00000000E+00  0.00000000E+00  0.00000000E+00
  0.00000000E+00  0.00000000E+00  0.00000000E+00
  0.00000000E+00  0.00000000E+00  0.00000000E+00
  0.00000000E+00  0.00000000E+00  0.00000000E+00
  0.00000000E+00  0.00000000E+00  0.00000000E+00
  0.00000000E+00  0.00000000E+00  0.00000000E+00
  0.00000000E+00  0.00000000E+00  0.00000000E+00
  0.00000000E+00  0.00000000E+00  0.00000000E+00
  0.00000000E+00  0.00000000E+00  0.00000000E+00
  0.00000000E+00  0.00000000E+00  0.00000000E+00
  0.00000000E+00  0.00000000E+00  0.00000000E+00
  0.00000000E+00  0.00000000E+00  0.00000000E+00
  0.00000000E+00  0.00000000E+00  0.00000000E+00
  0.00000000E+00  0.00000000E+00  0.00000000E+00
  0.00000000E+00  0.00000000E+00  0.00000000E+00
  0.00000000E+00  0.00000000E+00  0.00000000E+00
  0.00000000E+00  0.00000000E+00  0.00000000E+00
  0.00000000E+00  0.00000000E+00  0.00000000E+00
  0.00000000E+00  0.00000000E+00  0.00000000E+00
  0.00000000E+00  0.00000000E+00  0.00000000E+00
  0.00000000E+00  0.00000000E+00  0.00000000E+00
  0.00000000E+00  0.00000000E+00  0.00000000E+00
  0.00000000E+00  0.00000000E+00  0.00000000E+00
  0.00000000E+00  0.00000000E+00  0.00000000E+00
  0.00000000E+00  0.00000000E+00  0.00000000E+00
  0.00000000E+00  0.00000000E+00  0.00000000E+00
  0.00000000E+00  0.00000000E+00  0.00000000E+00
  0.00000000E+00  0.00000000E+00  0.00000000E+00
  0.00000000E+00  0.00000000E+00  0.00000000E+00
  0.00000000E+00  0.00000000E+00  0.00000000E+00
  0.00000000E+00  0.00000000E+00  0.00000000E+00
  0.00000000E+00  0.00000000E+00  0.00000000E+00
  0.00000000E+00  0.00000000E+00  0.00000000E+00
  0.00000000E+00  0.00000000E+00  0.00000000E+00
  0.00000000E+00  0.00000000E+00  0.00000000E+00
  0.00000000E+00  0.00000000E+00  0.00000000E+00
  0.00000000E+00  0.00000000E+00  0.00000000E+00
  0.00000000E+00  0.00000000E+00  0.00000000E+00
  0.00000000E+00  0.00000000E+00  0.00000000E+00
  0.00000000E+00  0.00000000E+00  0.00000000E+00
  0.00000000E+00  0.00000000E+00  0.00000000E+00
  0.00000000E+00  0.00000000E+00  0.00000000E+00
  0.00000000E+00  0.00000000E+00  0.00000000E+00
  0.00000000E+00  0.00000000E+00  0.00000000E+00
  0.00000000E+00  0.00000000E+00  0.00000000E+00
  0.00000000E+00  0.00000000E+00  0.00000000E+00
  0.00000000E+00  0.00000000E+00  0.00000000E+00
  0.00000000E+00  0.00000000E+00  0.00000000E+00
  0.00000000E+00  0.00000000E+00  0.00000000E+00
  0.00000000E+00  0.00000000E+00  0.00000000E+00
  0.00000000E+00  0.00000000E+00  0.00000000E+00
  0.00000000E+00  0.00000000E+00  0.00000000E+00
  0.00000000E+00  0.00000000E+00  0.00000000E+00
  0.00000000E+00  0.00000000E+00  0.00000000E+00
  0.00000000E+00  0.00000000E+00  0.00000000E+00
  0.00000000E+00  0.00000000E+00  0.00000000E+00
  0.00000000E+00  0.00000000E+00  0.00000000E+00
  0.00000000E+00  0.00000000E+00  0.00000000E+00
  0.00000000E+00  0.00000000E+00  0.00000000E+00
  0.00000000E+00  0.00000000E+00  0.00000000E+00
  0.00000000E+00  0.00000000E+00  0.00000000E+00
  0.00000000E+00  0.00000000E+00  0.00000000E+00
  0.00000000E+00  0.00000000E+00  0.00000000E+00
  0.00000000E+00  0.00000000E+00  0.00000000E+00
  0.00000000E+00  0.00000000E+00  0.00000000E+00
  0.00000000E+00  0.00000000E+00  0.00000000E+00
  0.00000000E+00  0.00000000E+00  0.00000000E+00
  0.00000000E+00  0.00000000E+00  0.00000000E+00
  0.00000000E+00  0.00000000E+00  0.00000000E+00
  0.00000000E+00  0.00000000E+00  0.00000000E+00
  0.00000000E+00  0.00000000E+00  0.00000000E+00
  0.00000000E+00  0.00000000E+00  0.00000000E+00
  0.00000000E+00  0.00000000E+00  0.00000000E+00
  0.00000000E+00  0.00000000E+00  0.00000000E+00
  0.00000000E+00  0.00000000E+00  0.00000000E+00
  0.00000000E+00  0.00000000E+00  0.00000000E+00
  0.00000000E+00  0.00000000E+00  0.00000000E+00
  0.00000000E+00  0.00000000E+00  0.00000000E+00
  0.00000000E+00  0.00000000E+00  0.00000000E+00
