automatic mesh
 0
G        
 12  12   1  
  0   0   0
