supercell
    1.0000000000000000
    6.1500000000000004    2.1304224933097191    0.0000000000000000
   -4.9199999999999999    4.2608449866194382    0.0000000000000000
    0.0000000000000000    0.0000000000000000   10.0000000000000000
  C 
  14
Direct
    0.0000000000000000    0.0000000000000000    0.5000000000000000
    0.2857142857142847    0.8571428571428541    0.5000000000000000
    0.5714285714285694    0.7142857142857153    0.5000000000000000
    0.8571428571428541    0.5714285714285694    0.5000000000000000
    0.1428571428571459    0.4285714285714306    0.5000000000000000
    0.4285714285714306    0.2857142857142847    0.5000000000000000
    0.7142857142857153    0.1428571428571459    0.5000000000000000
    0.2380952380952408    0.0476190476190510    0.5000000000000000
    0.5238095238095255    0.9047619047619051    0.5000000000000000
    0.8095238095238102    0.7619047619047592    0.5000000000000000
    0.0952380952380949    0.6190476190476204    0.5000000000000000
    0.3809523809523796    0.4761904761904745    0.5000000000000000
    0.6666666666666643    0.3333333333333357    0.5000000000000000
    0.9523809523809490    0.1904761904761898    0.5000000000000000
