# File generated with Atomsk by jiaxinchen on 2023-11-02 11:41:34
1.000000
2.46381044389999992000 0 0 
1.23456177429999982000 2.13525388560000024000 0  
0 0 15.4974455832999993
C
2
D
0.66666666666 0.66666666666 0.5
0.33333333333 0.33333333333 0.5
