graphene_unit_cell                      
1.0
        2.4600000381         0.0000000000         0.0000000000
       -1.2300000191         2.1304225263         0.0000000000
        0.0000000000         0.0000000000        20.0000000000
    C
    2
Direct
     0.000000000         0.000000000         0.20000000
     0.666666985         0.333332986         0.20000000
