automatic mesh
 0
G
   7   7   1
   0   0   0
