Graphene M-G-K
101
line
reciprocal
 0.00000000000000    2.50000000000000    0.00000000000000   1
 0.00000000000000    0.00000000000000    0.00000000000000   1

 0.00000000000000    0.00000000000000    0.00000000000000   1
 1.66666666666667    1.66666666666667    0.00000000000000   1
