supercell
1.0
       12.3000001907         0.0000000000         0.0000000000
        6.1500008046        10.6521122223         0.0000000000
        0.0000000000         0.0000000000        10.0000000000
    C
   49
Direct
     0.000000000         0.000000000         0.500000000
     0.200000003         0.000000000         0.500000000
     0.400000006         0.000000000         0.500000000
     0.600000024         0.000000000         0.500000000
     0.800000012         0.000000000         0.500000000
     0.000000000         0.800000012         0.500000000
     0.200000003         0.800000012         0.500000000
     0.400000006         0.800000012         0.500000000
     0.600000024         0.800000012         0.500000000
     0.800000012         0.800000012         0.500000000
     0.000000000         0.600000024         0.500000000
     0.200000003         0.600000024         0.500000000
     0.400000006         0.600000024         0.500000000
     0.600000024         0.600000024         0.500000000
     0.800000012         0.600000024         0.500000000
     0.000000000         0.399999976         0.500000000
     0.200000003         0.399999976         0.500000000
     0.400000006         0.399999976         0.500000000
     0.600000024         0.399999976         0.500000000
     0.800000012         0.399999976         0.500000000
     0.000000000         0.199999988         0.500000000
     0.200000003         0.199999988         0.500000000
     0.400000006         0.199999988         0.500000000
     0.600000024         0.199999988         0.500000000
     0.800000012         0.199999988         0.500000000
     0.133333340         0.933333337         0.500000000
     0.333333343         0.933333337         0.500000000
     0.533333361         0.933333337         0.500000000
     0.733333349         0.933333337         0.500000000
     0.933333337         0.933333337         0.500000000
     0.133333340         0.733333349         0.500000000
     0.533333361         0.733333349         0.500000000
     0.733333349         0.733333349         0.500000000
     0.933333337         0.733333349         0.500000000
     0.133333340         0.533333302         0.500000000
     0.333333343         0.533333302         0.500000000
     0.533333361         0.533333302         0.500000000
     0.733333349         0.533333302         0.500000000
     0.933333337         0.533333302         0.500000000
     0.133333340         0.333333313         0.500000000
     0.333333343         0.333333313         0.500000000
     0.533333361         0.333333313         0.500000000
     0.733333349         0.333333313         0.500000000
     0.933333337         0.333333313         0.500000000
     0.133333340         0.133333325         0.500000000
     0.333333343         0.133333325         0.500000000
     0.533333361         0.133333325         0.500000000
     0.733333349         0.133333325         0.500000000
     0.933333337         0.133333325         0.500000000
