 graphene
   1.000
    2.4683619294960666    0.0000000000000000    0.0000000000000000
    1.2341809647983604    2.1376641366727194    0.0000000000000000
    0.0000000000000009    0.0000000000000005   15.0000000000000000
   C 
    2
Direct
    0.0000000000000000    0.0000000000000000    0.5000000000000000     C1
    0.3333330150000009    0.3333329860000021    0.5000000000000000     C2
