Silicen                                 
   3.83000000000000     
     0.8660254037844386   -0.5000000000000000    0.0000000000000000
     0.8660254037844386    0.5000000000000000    0.0000000000000000
     0.0000000000000000    0.0000000000000000    2.61096605744125326370
   Si
     3
Direct
  0.0000000000000000  0.0000000000000000  0.5000000000000000
  0.3333333333333357  0.3333333333333357  0.55072157152555689
  0.666666666666666   0.6666666666666666   0.5000000000000000 
