K-Path 
   50
Line-Mode
Reciprocal
   0.0000000000   0.0000000000   0.0000000000     GAMMA          
   1.5000000000   1.5000000000   0.0000000000     M              
 
   1.5000000000   1.5000000000   0.0000000000     M              
   1.0000000000   2.0000000000   0.0000000000     K              
 
   1.0000000000   2.0000000000   0.0000000000     K              
   0.0000000000   0.0000000000   0.0000000000     GAMMA          
 
