K-Path
   50
Line-Mode
Reciprocal
   0.0000000000   0.0000000000   0.0000000000     GAMMA          
   1.0000000000   1.0000000000   0.0000000000     M              
 
   1.0000000000   1.0000000000   0.0000000000     M              
   0.6666666666   1.3333333333   0.0000000000     K              
 
   0.6666666666   1.3333333333   0.0000000000     K              
   0.0000000000   0.0000000000   0.0000000000     GAMMA          
 
